title                                   
    1.000000000000000     
     9.4929655990931234    0.1938250844929557   -0.0075109089671322
     0.1939518886657518    9.4740761631075738   -0.0341478133648504
    -0.0045219411900200   -0.0235216496296919    6.3389706342577865
   Cr   Nb   Ti   V_   Zr
    11    15     3     4     3
Direct
  0.5229142462686482  0.5015056726331224  0.2382735767011255
  0.6800920764818059  0.6511054074201112  0.0095031110877173
  0.3188455847422631  0.0030037162834375  0.5134173231785297
  0.1626378129828367  0.8405960563043493  0.7517046027942058
  0.6654943208704012  0.3436447072726878  0.0073339362847804
  0.0098296487252512  0.9899645172688594  0.0015649390126100
  0.9916176725923904  0.3331435465873511  0.5014502892302772
  0.1593928806758811  0.8375626259873741  0.2542064040272081
  0.9986271635890276  0.6687768788161037  0.4984647944412757
  0.6778541607438839  0.6513368828729753  0.4839392552904087
  0.1697833573571259  0.1496759072680760  0.7400975283307787
  0.5068272552467263  0.8251167367419541  0.2495061902913491
  0.0086309120130679  0.9930379050105458  0.5081212386211789
  0.3212021607297544  0.9974288474322535  0.9984475584416899
  0.6695596905614565  0.0057059070102099  0.5018112721308015
  0.8391795647962752  0.8236484083623949  0.7503598308032764
  0.8346630642607948  0.1705330452207292  0.7524820342396410
  0.3328313423745115  0.3292536915028705  0.5040692794984380
  0.1490904404026168  0.5068187149799712  0.7298417675268993
  0.1596400599499077  0.1580718297772776  0.2654765380741182
  0.5004385806443423  0.1657039751069576  0.2518880914911392
  0.6737121210236836  0.0076188026709119  0.0057283870161129
  0.1510116453515167  0.5074562964177503  0.2652225087521174
  0.5169080590872639  0.5020889061077156  0.7490412717585784
  0.6684942212945018  0.3383940675074513  0.4882045397330614
  0.3273605905202146  0.6710062064226321  0.4881781635924014
  0.8360905130671767  0.8229047728008680  0.2544924465625868
  0.0081630997434132  0.6784623163075310  0.9993194688062772
  0.3208565067503599  0.6729601991469565  0.0057215078885662
  0.8250266007770790  0.5152788125207479  0.2563855243781816
  0.8291356624814270  0.5100388410807284  0.7313134793102805
  0.4991644007072296  0.1626221902493796  0.7470965685140314
  0.8332518723489457  0.1702117275831796  0.2537334007654266
  0.3346142466905633  0.3354986092919958  0.9955368034520191
  0.5060596311203653  0.8278915800616673  0.7497769746954646
  0.9909988330272697  0.3319316919708584  0.9982893932774743
 
  0.00000000E+00  0.00000000E+00  0.00000000E+00
  0.00000000E+00  0.00000000E+00  0.00000000E+00
  0.00000000E+00  0.00000000E+00  0.00000000E+00
  0.00000000E+00  0.00000000E+00  0.00000000E+00
  0.00000000E+00  0.00000000E+00  0.00000000E+00
  0.00000000E+00  0.00000000E+00  0.00000000E+00
  0.00000000E+00  0.00000000E+00  0.00000000E+00
  0.00000000E+00  0.00000000E+00  0.00000000E+00
  0.00000000E+00  0.00000000E+00  0.00000000E+00
  0.00000000E+00  0.00000000E+00  0.00000000E+00
  0.00000000E+00  0.00000000E+00  0.00000000E+00
  0.00000000E+00  0.00000000E+00  0.00000000E+00
  0.00000000E+00  0.00000000E+00  0.00000000E+00
  0.00000000E+00  0.00000000E+00  0.00000000E+00
  0.00000000E+00  0.00000000E+00  0.00000000E+00
  0.00000000E+00  0.00000000E+00  0.00000000E+00
  0.00000000E+00  0.00000000E+00  0.00000000E+00
  0.00000000E+00  0.00000000E+00  0.00000000E+00
  0.00000000E+00  0.00000000E+00  0.00000000E+00
  0.00000000E+00  0.00000000E+00  0.00000000E+00
  0.00000000E+00  0.00000000E+00  0.00000000E+00
  0.00000000E+00  0.00000000E+00  0.00000000E+00
  0.00000000E+00  0.00000000E+00  0.00000000E+00
  0.00000000E+00  0.00000000E+00  0.00000000E+00
  0.00000000E+00  0.00000000E+00  0.00000000E+00
  0.00000000E+00  0.00000000E+00  0.00000000E+00
  0.00000000E+00  0.00000000E+00  0.00000000E+00
  0.00000000E+00  0.00000000E+00  0.00000000E+00
  0.00000000E+00  0.00000000E+00  0.00000000E+00
  0.00000000E+00  0.00000000E+00  0.00000000E+00
  0.00000000E+00  0.00000000E+00  0.00000000E+00
  0.00000000E+00  0.00000000E+00  0.00000000E+00
  0.00000000E+00  0.00000000E+00  0.00000000E+00
  0.00000000E+00  0.00000000E+00  0.00000000E+00
  0.00000000E+00  0.00000000E+00  0.00000000E+00
  0.00000000E+00  0.00000000E+00  0.00000000E+00
