WMoRu-2 alloy: 26 W, 26 Mo, 2 Ru        
    1.000000000000000     
     9.5084168149385100    0.0011672793690243   -0.0021031487577981
     0.0011667951494661    9.5080927512168270    0.0036063296771969
    -0.0021030805185549    0.0036059800089906    9.5085290342370001
   W    Mo   Ru
    26    26     2
Direct
  0.0001398755872088  0.0022621461542016  0.3337766007532750
  0.1677804943528400  0.1666886975706277  0.5013519678321146
  0.1666507581734109  0.1663561797210704  0.8334114734605222
  0.1678059546330530  0.5004193459033601  0.1670086629235215
  0.1694193206394772  0.5006514586284396  0.5014578230000950
  0.9994786519137122  0.3335585758876221  0.6644723350261330
  0.1672067821577699  0.4998970420143465  0.8329598916969090
  0.0000244158321223  0.6660059738261808  0.0002141250905652
  0.1663474267759000  0.8338895788083107  0.1662653625726449
  0.9995332708985103  0.6648612916336134  0.3341937071466390
  0.5001358003772012  0.1665688043034095  0.1671923710226650
  0.3328233718415348  0.0000161501335114  0.3335380401822903
  0.4998241447874392  0.1693083055207936  0.4997335711674111
  0.4998642611449782  0.4991119882874315  0.1684300187111276
  0.3339034187353889  0.6668457176577220  0.9987601822818988
  0.5003488336993911  0.8327747356368462  0.1670728098410450
  0.3324627476561872  0.6663411203852192  0.3327662674375631
  0.3332977768548062  0.6672623519068708  0.6675626455487063
  0.8327090669150294  0.1659626386572270  0.1663792648372677
  0.6664987624687271  0.9993983076317576  0.6667873025771840
  0.8337513783000787  0.1663548052035466  0.8338381283712408
  0.6666100155724592  0.3331236515110731  0.9997768511405312
  0.8317854539206024  0.5008373852304118  0.1670086576673739
  0.8325127744437424  0.5003408472484523  0.8327408187773031
  0.8332659696357183  0.8342847412343914  0.1664835355634793
  0.6676810762570753  0.6661026819385114  0.3330382372105021
  0.0001546516940039  0.9999888920113520  0.0000909147827457
  0.1675934978475055  0.1654952749587935  0.1652932162394691
  0.9998500356717201  0.0006925775117281  0.6659911107995882
  0.0001595467656941  0.3328673127107038  0.0017452365115034
  0.1669538369622288  0.8329550714887475  0.5005860074975317
  0.0000739773728995  0.6663704274810414  0.6665209482720087
  0.1660171259088088  0.8342146615975210  0.8330623534498969
  0.3342296471565902  0.9997570885161480  0.9992401170523948
  0.3337556475905927  0.9992586539289263  0.6668995697750191
  0.4998445716213098  0.1669942298794140  0.8321579901779614
  0.3332245266370251  0.3328180291169218  0.9999193160206374
  0.3303187786064967  0.3315281797817065  0.3322675563434672
  0.3320889435680812  0.3317258632256923  0.6667076980797333
  0.5004671005608046  0.4999650786282217  0.8303839832224327
  0.5003164656790844  0.8321076690062412  0.5005041922359936
  0.5000241297899635  0.8328034724166926  0.8328317448822347
  0.6660792101798663  0.9999419080543959  0.9989906614119803
  0.6672281045482720  0.9998890412729793  0.3334823531216387
  0.8312255496787060  0.1664488969383271  0.5017617867315849
  0.6704799986111070  0.3316650839620436  0.3324062897557098
  0.8283079454363786  0.5013761165297907  0.5022113126741488
  0.6676117579923755  0.3317386661696986  0.6667528720690541
  0.6665822183605457  0.6669366630751341  0.9993155733616348
  0.8327812591241113  0.8329395730955440  0.5004733961341259
  0.6679296535594474  0.6682049174198568  0.6682510762375458
  0.8338410616896539  0.8337743583958925  0.8333016239270421
  0.0009399919910891  0.3336472115487510  0.3316238364436543
  0.5000589618212885  0.5046705586428004  0.5010066109492755
 
  0.00000000E+00  0.00000000E+00  0.00000000E+00
  0.00000000E+00  0.00000000E+00  0.00000000E+00
  0.00000000E+00  0.00000000E+00  0.00000000E+00
  0.00000000E+00  0.00000000E+00  0.00000000E+00
  0.00000000E+00  0.00000000E+00  0.00000000E+00
  0.00000000E+00  0.00000000E+00  0.00000000E+00
  0.00000000E+00  0.00000000E+00  0.00000000E+00
  0.00000000E+00  0.00000000E+00  0.00000000E+00
  0.00000000E+00  0.00000000E+00  0.00000000E+00
  0.00000000E+00  0.00000000E+00  0.00000000E+00
  0.00000000E+00  0.00000000E+00  0.00000000E+00
  0.00000000E+00  0.00000000E+00  0.00000000E+00
  0.00000000E+00  0.00000000E+00  0.00000000E+00
  0.00000000E+00  0.00000000E+00  0.00000000E+00
  0.00000000E+00  0.00000000E+00  0.00000000E+00
  0.00000000E+00  0.00000000E+00  0.00000000E+00
  0.00000000E+00  0.00000000E+00  0.00000000E+00
  0.00000000E+00  0.00000000E+00  0.00000000E+00
  0.00000000E+00  0.00000000E+00  0.00000000E+00
  0.00000000E+00  0.00000000E+00  0.00000000E+00
  0.00000000E+00  0.00000000E+00  0.00000000E+00
  0.00000000E+00  0.00000000E+00  0.00000000E+00
  0.00000000E+00  0.00000000E+00  0.00000000E+00
  0.00000000E+00  0.00000000E+00  0.00000000E+00
  0.00000000E+00  0.00000000E+00  0.00000000E+00
  0.00000000E+00  0.00000000E+00  0.00000000E+00
  0.00000000E+00  0.00000000E+00  0.00000000E+00
  0.00000000E+00  0.00000000E+00  0.00000000E+00
  0.00000000E+00  0.00000000E+00  0.00000000E+00
  0.00000000E+00  0.00000000E+00  0.00000000E+00
  0.00000000E+00  0.00000000E+00  0.00000000E+00
  0.00000000E+00  0.00000000E+00  0.00000000E+00
  0.00000000E+00  0.00000000E+00  0.00000000E+00
  0.00000000E+00  0.00000000E+00  0.00000000E+00
  0.00000000E+00  0.00000000E+00  0.00000000E+00
  0.00000000E+00  0.00000000E+00  0.00000000E+00
  0.00000000E+00  0.00000000E+00  0.00000000E+00
  0.00000000E+00  0.00000000E+00  0.00000000E+00
  0.00000000E+00  0.00000000E+00  0.00000000E+00
  0.00000000E+00  0.00000000E+00  0.00000000E+00
  0.00000000E+00  0.00000000E+00  0.00000000E+00
  0.00000000E+00  0.00000000E+00  0.00000000E+00
  0.00000000E+00  0.00000000E+00  0.00000000E+00
  0.00000000E+00  0.00000000E+00  0.00000000E+00
  0.00000000E+00  0.00000000E+00  0.00000000E+00
  0.00000000E+00  0.00000000E+00  0.00000000E+00
  0.00000000E+00  0.00000000E+00  0.00000000E+00
  0.00000000E+00  0.00000000E+00  0.00000000E+00
  0.00000000E+00  0.00000000E+00  0.00000000E+00
  0.00000000E+00  0.00000000E+00  0.00000000E+00
  0.00000000E+00  0.00000000E+00  0.00000000E+00
  0.00000000E+00  0.00000000E+00  0.00000000E+00
  0.00000000E+00  0.00000000E+00  0.00000000E+00
  0.00000000E+00  0.00000000E+00  0.00000000E+00
