WMoRuTi-12 quaternary alloy: 16 W, 16 Mo
    1.000000000000000     
     9.4360856975167415   -0.0011965053220658    0.0203180596614569
    -0.0011942776690324    9.4548448362850550   -0.0002624179093200
     0.0203301205228915   -0.0002594751614451    9.4267861290507931
   W    Mo   Ru   Ti
    16    16    10    12
Direct
  0.0014326531711930  0.0014094670080809  0.0005205362155252
  0.1682745507290093  0.1679150381955168  0.1680730182785624
  0.1673762007511783  0.1669176030236557  0.8332776387923602
  0.9998231949687977  0.3329261968684278  0.9993135345850135
  0.0001510697570239  0.3367751771632044  0.3317564799056143
  0.9991047589069311  0.3313920395951158  0.6679452719075911
  0.4998443981639511  0.1710358451379719  0.1660825430622523
  0.4978886435051777  0.5035029547830590  0.1671797723436512
  0.3346865856007923  0.6691371633981547  0.0010803446548451
  0.4981135592300916  0.8297625657341143  0.8303035712326547
  0.8335245258990014  0.1680398940542958  0.1675967509429341
  0.6663318391514395  0.0004389697084974  0.3323476291222747
  0.8390576972047299  0.5036308235486047  0.1671332921779154
  0.8357122077941597  0.5045663615419542  0.8318473191876024
  0.8331749562836634  0.8331022135405419  0.1639135297614871
  0.8323569296617066  0.8332050045525463  0.4993939409439321
  0.0009074471055115  0.6658796260215141  0.0007825271593589
  0.1675068854706581  0.8307732318633398  0.1658638965104871
  0.9999953380656450  0.6644735883877644  0.6615409901087119
  0.3337291053479490  0.0022667998436248  0.3322758818004772
  0.4986153818925629  0.1659182976283091  0.5038576883250272
  0.3388252023974516  0.3293360798169687  0.9977158516352276
  0.5008782068048276  0.8344812707487179  0.1667953122858208
  0.3330229859623444  0.6679312589275170  0.3338532614588772
  0.4978907921011384  0.8295106407606241  0.4999418730001040
  0.3362660520127463  0.6618994574913870  0.6668921852017888
  0.8297461194419924  0.1711140905929511  0.8326712232112072
  0.8361229560619918  0.5006254253711120  0.5024526472179431
  0.6613804565512851  0.3339404817548228  0.6728724633609886
  0.6676122029017293  0.6648215681517016  0.0024640153120785
  0.6694232122519068  0.6652642408154819  0.3326507252245605
  0.6680133591632611  0.6701586964131820  0.6649453478485725
  0.1720123527225823  0.4944989256948418  0.1683162464064480
  0.1704662157068597  0.4965963096996759  0.4940771600592484
  0.9974583966061203  0.6764036436713781  0.3341124834061446
  0.3272256582523525  0.9964738523145087  0.6651349926578618
  0.5016266540648928  0.1597798594639173  0.8367005241451153
  0.3314086517203663  0.3228690098605895  0.6640222960163698
  0.4962920586956301  0.5058140117364758  0.8307766033925361
  0.6731462736802456  0.3354838595925997  0.0107632136798728
  0.6645275503078025  0.3337539053891305  0.3353836743696093
  0.8324462528773537  0.8384000572656873  0.8314706166864099
  0.9990052867483996  0.9994554483028253  0.3311084969963360
  0.1691403471020578  0.1666165565954714  0.5030714860140364
  0.9908690854699742  0.9972006205889272  0.6722602910162649
  0.1689841882728444  0.4975996474274211  0.8303868842710074
  0.1669598919585269  0.8290390060593964  0.5007343957173944
  0.1667774592804889  0.8269235136368067  0.8280770119102030
  0.3375475053436503  0.9996762569308189  0.9964500118076316
  0.3328039616265528  0.3363818027202328  0.3351334704392315
  0.4998211674700812  0.4980022193298907  0.5030639623728348
  0.6650805855774493  0.0016307176276271  0.9957261109639504
  0.8281346753226373  0.1725835503498203  0.4989996432925423
  0.6614763068812906  0.0026651532991693  0.6688893616034832
 
  0.00000000E+00  0.00000000E+00  0.00000000E+00
  0.00000000E+00  0.00000000E+00  0.00000000E+00
  0.00000000E+00  0.00000000E+00  0.00000000E+00
  0.00000000E+00  0.00000000E+00  0.00000000E+00
  0.00000000E+00  0.00000000E+00  0.00000000E+00
  0.00000000E+00  0.00000000E+00  0.00000000E+00
  0.00000000E+00  0.00000000E+00  0.00000000E+00
  0.00000000E+00  0.00000000E+00  0.00000000E+00
  0.00000000E+00  0.00000000E+00  0.00000000E+00
  0.00000000E+00  0.00000000E+00  0.00000000E+00
  0.00000000E+00  0.00000000E+00  0.00000000E+00
  0.00000000E+00  0.00000000E+00  0.00000000E+00
  0.00000000E+00  0.00000000E+00  0.00000000E+00
  0.00000000E+00  0.00000000E+00  0.00000000E+00
  0.00000000E+00  0.00000000E+00  0.00000000E+00
  0.00000000E+00  0.00000000E+00  0.00000000E+00
  0.00000000E+00  0.00000000E+00  0.00000000E+00
  0.00000000E+00  0.00000000E+00  0.00000000E+00
  0.00000000E+00  0.00000000E+00  0.00000000E+00
  0.00000000E+00  0.00000000E+00  0.00000000E+00
  0.00000000E+00  0.00000000E+00  0.00000000E+00
  0.00000000E+00  0.00000000E+00  0.00000000E+00
  0.00000000E+00  0.00000000E+00  0.00000000E+00
  0.00000000E+00  0.00000000E+00  0.00000000E+00
  0.00000000E+00  0.00000000E+00  0.00000000E+00
  0.00000000E+00  0.00000000E+00  0.00000000E+00
  0.00000000E+00  0.00000000E+00  0.00000000E+00
  0.00000000E+00  0.00000000E+00  0.00000000E+00
  0.00000000E+00  0.00000000E+00  0.00000000E+00
  0.00000000E+00  0.00000000E+00  0.00000000E+00
  0.00000000E+00  0.00000000E+00  0.00000000E+00
  0.00000000E+00  0.00000000E+00  0.00000000E+00
  0.00000000E+00  0.00000000E+00  0.00000000E+00
  0.00000000E+00  0.00000000E+00  0.00000000E+00
  0.00000000E+00  0.00000000E+00  0.00000000E+00
  0.00000000E+00  0.00000000E+00  0.00000000E+00
  0.00000000E+00  0.00000000E+00  0.00000000E+00
  0.00000000E+00  0.00000000E+00  0.00000000E+00
  0.00000000E+00  0.00000000E+00  0.00000000E+00
  0.00000000E+00  0.00000000E+00  0.00000000E+00
  0.00000000E+00  0.00000000E+00  0.00000000E+00
  0.00000000E+00  0.00000000E+00  0.00000000E+00
  0.00000000E+00  0.00000000E+00  0.00000000E+00
  0.00000000E+00  0.00000000E+00  0.00000000E+00
  0.00000000E+00  0.00000000E+00  0.00000000E+00
  0.00000000E+00  0.00000000E+00  0.00000000E+00
  0.00000000E+00  0.00000000E+00  0.00000000E+00
  0.00000000E+00  0.00000000E+00  0.00000000E+00
  0.00000000E+00  0.00000000E+00  0.00000000E+00
  0.00000000E+00  0.00000000E+00  0.00000000E+00
  0.00000000E+00  0.00000000E+00  0.00000000E+00
  0.00000000E+00  0.00000000E+00  0.00000000E+00
  0.00000000E+00  0.00000000E+00  0.00000000E+00
  0.00000000E+00  0.00000000E+00  0.00000000E+00
