title                                   
    1.000000000000000     
     9.7553862407187761   -0.0392119323025788   -0.0140445681728461
    -0.0391754827346520    9.7353498615009446    0.0071214811888968
    -0.0093719513791438    0.0047795645153089    6.5269017127762856
   Hf   Nb   Ti   V_   W_
     7     7     7     7     8
Direct
  0.4901292458683670  0.8351715183586208  0.7534058033993176
  0.6549947798824363  0.6535254163731494  0.0171601033703936
  0.8433873389287569  0.4793742348420551  0.7659994990602144
  0.9927422191557369  0.6716910780307117  0.4836527540754147
  0.0008611679353692  0.0052825724087171  0.4923005206911668
  0.1744636018596140  0.8247702416298281  0.7595106883219600
  0.6640645496911972  0.6616492221364112  0.4897255266925455
  0.5048360121477700  0.1701060538002253  0.7478965044893258
  0.8323202833128320  0.8423917052177146  0.2177126592323901
  0.5046220970978439  0.1736091911236031  0.2524603824313516
  0.4851586359270357  0.4961089560578529  0.7448417138581007
  0.6731095481371838  0.0039474694787813  0.4950803102291204
  0.6677019278511267  0.0112060047076241  0.9972284347717277
  0.3292101904600813  0.0101449547102206  0.4914098583727835
  0.3329299117463407  0.3312900565945966  0.0020932528209272
  0.1654721302425202  0.4992462138343257  0.7555874077257982
  0.1664987469618211  0.4927289084369377  0.2489041326011829
  0.0098364773615387  0.0164368390542364  0.9985020813919903
  0.8346497482709339  0.8368991570813336  0.7756881500006685
  0.8317037086677459  0.1871045169233838  0.2429632473469781
  0.8443757618134811  0.4755652222064342  0.2403378649946575
  0.3390303066477856  0.6612922707432674  0.0239137248917416
  0.8330294095255582  0.1809016116024509  0.7425997076622295
  0.4766195353592906  0.4968885686969031  0.2639861337434013
  0.0193342503886029  0.3066271780262539  0.9952136491487593
  0.3303835692765347  0.3323946908137216  0.5041657434287501
  0.6519071088272810  0.3319474347556053  0.9990846342426991
  0.1694045576909460  0.1785401864583847  0.2494730934149558
  0.4911898710085225  0.8373981865075066  0.2495300815883468
  0.6605709653581187  0.3369487800928681  0.4977386144665203
  0.1737252570149437  0.8290537615637632  0.2385401602226693
  0.1726882663246982  0.1721096763099013  0.7496423125991498
  0.3329679070101790  0.6610352692868346  0.4851015279918869
  0.0062766117504012  0.6682158976610921  0.0155302117008702
  0.0103464595109841  0.3213419340506221  0.5017064770492965
  0.3294578409864144  0.0070550204240618  0.0113130319706940
 
  0.00000000E+00  0.00000000E+00  0.00000000E+00
  0.00000000E+00  0.00000000E+00  0.00000000E+00
  0.00000000E+00  0.00000000E+00  0.00000000E+00
  0.00000000E+00  0.00000000E+00  0.00000000E+00
  0.00000000E+00  0.00000000E+00  0.00000000E+00
  0.00000000E+00  0.00000000E+00  0.00000000E+00
  0.00000000E+00  0.00000000E+00  0.00000000E+00
  0.00000000E+00  0.00000000E+00  0.00000000E+00
  0.00000000E+00  0.00000000E+00  0.00000000E+00
  0.00000000E+00  0.00000000E+00  0.00000000E+00
  0.00000000E+00  0.00000000E+00  0.00000000E+00
  0.00000000E+00  0.00000000E+00  0.00000000E+00
  0.00000000E+00  0.00000000E+00  0.00000000E+00
  0.00000000E+00  0.00000000E+00  0.00000000E+00
  0.00000000E+00  0.00000000E+00  0.00000000E+00
  0.00000000E+00  0.00000000E+00  0.00000000E+00
  0.00000000E+00  0.00000000E+00  0.00000000E+00
  0.00000000E+00  0.00000000E+00  0.00000000E+00
  0.00000000E+00  0.00000000E+00  0.00000000E+00
  0.00000000E+00  0.00000000E+00  0.00000000E+00
  0.00000000E+00  0.00000000E+00  0.00000000E+00
  0.00000000E+00  0.00000000E+00  0.00000000E+00
  0.00000000E+00  0.00000000E+00  0.00000000E+00
  0.00000000E+00  0.00000000E+00  0.00000000E+00
  0.00000000E+00  0.00000000E+00  0.00000000E+00
  0.00000000E+00  0.00000000E+00  0.00000000E+00
  0.00000000E+00  0.00000000E+00  0.00000000E+00
  0.00000000E+00  0.00000000E+00  0.00000000E+00
  0.00000000E+00  0.00000000E+00  0.00000000E+00
  0.00000000E+00  0.00000000E+00  0.00000000E+00
  0.00000000E+00  0.00000000E+00  0.00000000E+00
  0.00000000E+00  0.00000000E+00  0.00000000E+00
  0.00000000E+00  0.00000000E+00  0.00000000E+00
  0.00000000E+00  0.00000000E+00  0.00000000E+00
  0.00000000E+00  0.00000000E+00  0.00000000E+00
  0.00000000E+00  0.00000000E+00  0.00000000E+00
