title                                   
    1.000000000000000     
     9.8601624954052109   -0.0343718238028896   -0.0006586305755253
    -0.0343939816222192    9.9653896254930832   -0.0918811316495534
    -0.0005140475421848   -0.0619209806790782    6.7643748916530990
   Ta   Ti   W_   Zr
    11    14     4     7
Direct
  0.6462155191647341  0.6706112505056865  0.0209047235550344
  0.0116036101749515  0.3209785267843515  0.5056457602144704
  0.9984753774177904  0.3359919348861879  0.9975141562112526
  0.3320738714709250  0.9965480078518496  0.4946241243151377
  0.4951736008470959  0.1465253450658821  0.7555583531679986
  0.3235528196182642  0.3216874663075444  0.5275136993782752
  0.6651788854552194  0.9932657798863147  0.0057484534606189
  0.8326276481760644  0.1645541958498953  0.2434723913337749
  0.1649362136303267  0.5017284844368959  0.7458764400187476
  0.8340123658985590  0.8368690402973940  0.2448289397068066
  0.4954288631611803  0.8324931697948657  0.7467496452523505
  0.3341817369099971  0.6620266088550792  0.0227003758917803
  0.1685554303539689  0.1620332901033947  0.7876587317057897
  0.1713620248331367  0.1658545661404673  0.2237608189565634
  0.1696317069009297  0.8564204252855845  0.2217605563828968
  0.8371447884386640  0.1539597322027930  0.7711461582211285
  0.4903807415650547  0.4895508927657986  0.2669297660058518
  0.0241450957282723  0.6675707414829404  0.4597189115563225
  0.6465058651765005  0.6831655240468777  0.4678033023571828
  0.0206034296379656  0.6562577707206998  0.0382140909446420
  0.1822255822181305  0.4722756228862650  0.2537150789793756
  0.3467179260122109  0.3479488568354228  0.9664557883602427
  0.6642632380191102  0.3359924643211585  0.9785755817054280
  0.3283538550393530  0.6795463395293595  0.4684372037204341
  0.4853609089722539  0.5273745911895418  0.7285557007115386
  0.6645042068151596  0.9930154292192981  0.4927644277278631
  0.4952512298777876  0.8435871921085720  0.2450633588079967
  0.3408787217961944  0.9944479768041106  0.9995956905321961
  0.9936741932298929  0.0024959913028013  0.0113865354351503
  0.8281473614713519  0.4961379284267338  0.2610143964664147
  0.8317395972192401  0.8292303837962152  0.7484715374139483
  0.1669898835868295  0.8280877329425209  0.7645477328775243
  0.6623185739131543  0.3284098966842279  0.5391116498692696
  0.0067575662291404  0.0146149686175576  0.4976286297932475
  0.4962323421010737  0.1738551467087248  0.2487069670078483
  0.8447952189395309  0.5148867253570089  0.7478403219548966
 
  0.00000000E+00  0.00000000E+00  0.00000000E+00
  0.00000000E+00  0.00000000E+00  0.00000000E+00
  0.00000000E+00  0.00000000E+00  0.00000000E+00
  0.00000000E+00  0.00000000E+00  0.00000000E+00
  0.00000000E+00  0.00000000E+00  0.00000000E+00
  0.00000000E+00  0.00000000E+00  0.00000000E+00
  0.00000000E+00  0.00000000E+00  0.00000000E+00
  0.00000000E+00  0.00000000E+00  0.00000000E+00
  0.00000000E+00  0.00000000E+00  0.00000000E+00
  0.00000000E+00  0.00000000E+00  0.00000000E+00
  0.00000000E+00  0.00000000E+00  0.00000000E+00
  0.00000000E+00  0.00000000E+00  0.00000000E+00
  0.00000000E+00  0.00000000E+00  0.00000000E+00
  0.00000000E+00  0.00000000E+00  0.00000000E+00
  0.00000000E+00  0.00000000E+00  0.00000000E+00
  0.00000000E+00  0.00000000E+00  0.00000000E+00
  0.00000000E+00  0.00000000E+00  0.00000000E+00
  0.00000000E+00  0.00000000E+00  0.00000000E+00
  0.00000000E+00  0.00000000E+00  0.00000000E+00
  0.00000000E+00  0.00000000E+00  0.00000000E+00
  0.00000000E+00  0.00000000E+00  0.00000000E+00
  0.00000000E+00  0.00000000E+00  0.00000000E+00
  0.00000000E+00  0.00000000E+00  0.00000000E+00
  0.00000000E+00  0.00000000E+00  0.00000000E+00
  0.00000000E+00  0.00000000E+00  0.00000000E+00
  0.00000000E+00  0.00000000E+00  0.00000000E+00
  0.00000000E+00  0.00000000E+00  0.00000000E+00
  0.00000000E+00  0.00000000E+00  0.00000000E+00
  0.00000000E+00  0.00000000E+00  0.00000000E+00
  0.00000000E+00  0.00000000E+00  0.00000000E+00
  0.00000000E+00  0.00000000E+00  0.00000000E+00
  0.00000000E+00  0.00000000E+00  0.00000000E+00
  0.00000000E+00  0.00000000E+00  0.00000000E+00
  0.00000000E+00  0.00000000E+00  0.00000000E+00
  0.00000000E+00  0.00000000E+00  0.00000000E+00
  0.00000000E+00  0.00000000E+00  0.00000000E+00
