title                                   
    1.000000000000000     
     9.9073708156272193    0.0492493087612489    0.0471622040120168
     0.0494653919016758    9.8827026969032712    0.0101232077299304
     0.0315500960393651    0.0064238396021290    6.6953498051374973
   Hf   Mo   Nb   Ti
     7     4    11    14
Direct
  0.3267951104343609  0.9998396675872741  0.4960189572281593
  0.5064639944768743  0.4854384579034061  0.7471663318982138
  0.3320926319015740  0.6675451175425451  0.4986500960686726
  0.5075097066577428  0.1693467044060739  0.7474044063697534
  0.8202750500481741  0.1616450917218799  0.7361478667331127
  0.1520614301359089  0.8310987359621933  0.2228327141918669
  0.0058400033746082  0.6614365520160987  0.5259560879227720
  0.5068824325989496  0.8327824963441586  0.2512334381982910
  0.8319836592235177  0.5018241895913889  0.7536614294218467
  0.6590008726507932  0.9921057233049311  0.4837625580422582
  0.1709694592013022  0.4931793480294431  0.7588477796212203
  0.6685629804469428  0.6624742466769149  0.4951419019747192
  0.8341284799581672  0.1610880102379113  0.2572986512274440
  0.3371129207046053  0.6570851171853320  0.9978805881337820
  0.9788819114806131  0.0064008911362805  0.0019686429238561
  0.5069471580620615  0.8279951269652841  0.7535103430371990
  0.4996533716715135  0.4924217070782717  0.2447157719491813
  0.9922738299103528  0.6590624617337681  0.9717463860184736
  0.3511151438562905  0.9955100238492349  0.0173943782999686
  0.9977979726083248  0.3389621657048991  0.9883422561590365
  0.6681541015595727  0.6705251218089643  0.0003848578209187
  0.3158109348724594  0.3308346210900339  0.5029349289993306
  0.6902935442104479  0.3494851946056698  0.4726007914830177
  0.1656864235071964  0.8434035399823827  0.7850251972572266
  0.3189513245301470  0.3391886695886939  0.9956904653819620
  0.0154060198024126  0.0053918925677223  0.5049865703535730
  0.0043405412217865  0.3387752096126704  0.5106151703419783
  0.8506199678776483  0.5153579162892044  0.2389933161664430
  0.8328477694934904  0.8352964718729510  0.2608014702511667
  0.5082417890345496  0.1731165849571425  0.2583791148489070
  0.6876504757132267  0.3440519282627861  0.0177638384940408
  0.8207597245631959  0.8458275231036083  0.7335692137549756
  0.1574671818354787  0.1702458289371975  0.2266291568627636
  0.1588574394850113  0.4974809685181540  0.2406710394561600
  0.1618408392053752  0.1579112750470131  0.7825229962440403
  0.6567238036853240  0.9858654187785234  0.0187512868636759
 
  0.00000000E+00  0.00000000E+00  0.00000000E+00
  0.00000000E+00  0.00000000E+00  0.00000000E+00
  0.00000000E+00  0.00000000E+00  0.00000000E+00
  0.00000000E+00  0.00000000E+00  0.00000000E+00
  0.00000000E+00  0.00000000E+00  0.00000000E+00
  0.00000000E+00  0.00000000E+00  0.00000000E+00
  0.00000000E+00  0.00000000E+00  0.00000000E+00
  0.00000000E+00  0.00000000E+00  0.00000000E+00
  0.00000000E+00  0.00000000E+00  0.00000000E+00
  0.00000000E+00  0.00000000E+00  0.00000000E+00
  0.00000000E+00  0.00000000E+00  0.00000000E+00
  0.00000000E+00  0.00000000E+00  0.00000000E+00
  0.00000000E+00  0.00000000E+00  0.00000000E+00
  0.00000000E+00  0.00000000E+00  0.00000000E+00
  0.00000000E+00  0.00000000E+00  0.00000000E+00
  0.00000000E+00  0.00000000E+00  0.00000000E+00
  0.00000000E+00  0.00000000E+00  0.00000000E+00
  0.00000000E+00  0.00000000E+00  0.00000000E+00
  0.00000000E+00  0.00000000E+00  0.00000000E+00
  0.00000000E+00  0.00000000E+00  0.00000000E+00
  0.00000000E+00  0.00000000E+00  0.00000000E+00
  0.00000000E+00  0.00000000E+00  0.00000000E+00
  0.00000000E+00  0.00000000E+00  0.00000000E+00
  0.00000000E+00  0.00000000E+00  0.00000000E+00
  0.00000000E+00  0.00000000E+00  0.00000000E+00
  0.00000000E+00  0.00000000E+00  0.00000000E+00
  0.00000000E+00  0.00000000E+00  0.00000000E+00
  0.00000000E+00  0.00000000E+00  0.00000000E+00
  0.00000000E+00  0.00000000E+00  0.00000000E+00
  0.00000000E+00  0.00000000E+00  0.00000000E+00
  0.00000000E+00  0.00000000E+00  0.00000000E+00
  0.00000000E+00  0.00000000E+00  0.00000000E+00
  0.00000000E+00  0.00000000E+00  0.00000000E+00
  0.00000000E+00  0.00000000E+00  0.00000000E+00
  0.00000000E+00  0.00000000E+00  0.00000000E+00
  0.00000000E+00  0.00000000E+00  0.00000000E+00
