title                                   
    1.000000000000000     
    10.0614592887742980   -0.0208225186354327   -0.0503822518940796
    -0.0206363480541595    9.9336474595668456    0.0255098757181766
    -0.0336077825188609    0.0169329741594382    6.6895375924886027
   Hf   Mo   Ta   W_   Zr
     7     7     7     8     7
Direct
  0.8217624450843957  0.1631960881692365  0.7335173500092935
  0.9918179827019671  0.3313158526206621  0.0052954802502327
  0.3304042027706018  0.9978926987050656  0.5058428874957528
  0.0138270360442974  0.9989851356904467  0.4975345614333690
  0.9996889287865329  0.6625795157210703  0.9946300474757379
  0.1742287204941491  0.4984703788591816  0.2596296420619169
  0.3398318919766581  0.6717347022964475  0.5219193612291022
  0.8272406164938459  0.1674750744388618  0.2528545689285835
  0.5093507492918761  0.1679315529816279  0.2572739173808216
  0.8231646805735906  0.4974841488023216  0.2540681670627265
  0.6526671201643524  0.6621101915723955  0.5007472399464419
  0.6565929606357059  0.0019520412740590  0.4865156866274560
  0.6673037847793424  0.3347529074338240  0.4786508377165646
  0.5056120898517378  0.5045263517392513  0.7557419400845689
  0.1721314722878802  0.1892017246069173  0.2683609318022420
  0.6710954527226747  0.3357676290647618  0.0144011828012509
  0.1756276264386969  0.8139827258580397  0.2457132876702559
  0.1663930000906717  0.4952911130372541  0.7403814612595951
  0.5045067276188817  0.5032285962400920  0.2581619796764087
  0.0094674494756006  0.6703188016539272  0.5055450230204031
  0.5073029576714632  0.8299489208075741  0.2491571292661732
  0.1698063713572893  0.8234296156180747  0.7577389256424141
  0.3393526503895217  0.3353930710300901  0.5060248442573894
  0.6556210801827191  0.6593243874229984  0.0010155096812667
  0.1626616091454736  0.1832516742924781  0.7313659267445942
  0.5071658201481455  0.8333456901994651  0.7658707507321196
  0.3375692675872841  0.6693758918884214  0.9930030613681708
  0.9996138581124470  0.3278994151772139  0.4920594230656548
  0.6563287085064999  0.0009387122927009  0.0056523496459775
  0.8180312223689867  0.8319066937546182  0.2500961789669560
  0.5133679937083500  0.1662824049098006  0.7404901735979195
  0.8244124647706883  0.4990861738204515  0.7299277886207136
  0.3308205583174626  0.0003799178075568  0.9999628844998085
  0.0081944724346101  0.0042886605380090  0.0010337489667407
  0.3413206383293996  0.3338566559095781  0.9949449796866219
  0.8157153886861863  0.8330948837655043  0.7448707713247558
 
  0.00000000E+00  0.00000000E+00  0.00000000E+00
  0.00000000E+00  0.00000000E+00  0.00000000E+00
  0.00000000E+00  0.00000000E+00  0.00000000E+00
  0.00000000E+00  0.00000000E+00  0.00000000E+00
  0.00000000E+00  0.00000000E+00  0.00000000E+00
  0.00000000E+00  0.00000000E+00  0.00000000E+00
  0.00000000E+00  0.00000000E+00  0.00000000E+00
  0.00000000E+00  0.00000000E+00  0.00000000E+00
  0.00000000E+00  0.00000000E+00  0.00000000E+00
  0.00000000E+00  0.00000000E+00  0.00000000E+00
  0.00000000E+00  0.00000000E+00  0.00000000E+00
  0.00000000E+00  0.00000000E+00  0.00000000E+00
  0.00000000E+00  0.00000000E+00  0.00000000E+00
  0.00000000E+00  0.00000000E+00  0.00000000E+00
  0.00000000E+00  0.00000000E+00  0.00000000E+00
  0.00000000E+00  0.00000000E+00  0.00000000E+00
  0.00000000E+00  0.00000000E+00  0.00000000E+00
  0.00000000E+00  0.00000000E+00  0.00000000E+00
  0.00000000E+00  0.00000000E+00  0.00000000E+00
  0.00000000E+00  0.00000000E+00  0.00000000E+00
  0.00000000E+00  0.00000000E+00  0.00000000E+00
  0.00000000E+00  0.00000000E+00  0.00000000E+00
  0.00000000E+00  0.00000000E+00  0.00000000E+00
  0.00000000E+00  0.00000000E+00  0.00000000E+00
  0.00000000E+00  0.00000000E+00  0.00000000E+00
  0.00000000E+00  0.00000000E+00  0.00000000E+00
  0.00000000E+00  0.00000000E+00  0.00000000E+00
  0.00000000E+00  0.00000000E+00  0.00000000E+00
  0.00000000E+00  0.00000000E+00  0.00000000E+00
  0.00000000E+00  0.00000000E+00  0.00000000E+00
  0.00000000E+00  0.00000000E+00  0.00000000E+00
  0.00000000E+00  0.00000000E+00  0.00000000E+00
  0.00000000E+00  0.00000000E+00  0.00000000E+00
  0.00000000E+00  0.00000000E+00  0.00000000E+00
  0.00000000E+00  0.00000000E+00  0.00000000E+00
  0.00000000E+00  0.00000000E+00  0.00000000E+00
