title                                   
    1.000000000000000     
     9.3904561693975186    0.0047075613042725   -0.0077980637451969
     0.0046942462260607    9.3894859994739459    0.0063337081106563
    -0.0052290586480778    0.0042647928676150    6.2879278405812782
   Ti   V_   W_
    12    12    12
Direct
  0.8335780972511984  0.4926392325818441  0.7535966318654630
  0.1733760985660950  0.8352877142152124  0.2321173071213067
  0.6610039823398779  0.6683210281386351  0.0063922942419126
  0.4957337977441370  0.1657232251792067  0.7430414234852876
  0.6652260381875692  0.9984202524187467  0.0035692033471761
  0.6612731967614565  0.3353791629827043  0.4884563595713161
  0.3391584995121448  0.3355303782635914  0.0088930526046909
  0.1695105092525608  0.1659439872063544  0.7534164356790498
  0.1729075446963009  0.8352278811123597  0.7630653445995037
  0.9952395789212858  0.6691052792837411  0.4993890007808588
  0.9982737996151698  0.0029520386140405  0.4954578105411969
  0.1672801002680302  0.4963399541802147  0.2508222117876144
  0.1678699613548460  0.1678860660375037  0.2470032510385280
  0.6683019480601757  0.3341851636521938  0.0094011952841484
  0.6653115820068862  0.6679786345156415  0.4981372692905666
  0.0023537617965346  0.3280427237109649  0.0015210829517116
  0.3500682776704522  0.0022545674394863  0.0092318655625618
  0.9967678171939056  0.3281291798534198  0.4944137178527583
  0.3388975919683119  0.3363789382439677  0.4935402114222143
  0.4902499335861776  0.8347374079560339  0.2539891606069560
  0.4912321857001345  0.5085384219464757  0.2574632648132962
  0.3457443518490848  0.6590451890001177  0.9989860176893330
  0.9882919629993623  0.0051575185176205  0.0023705605394611
  0.4932153915744522  0.1596099823765869  0.2610665256869353
  0.8363276832176538  0.4969092410552989  0.2453276340820523
  0.1648465262850536  0.4961290337447295  0.7479912906006803
  0.3326388104652978  0.0031665018908669  0.4920604044039649
  0.8360831212454229  0.1734889275482701  0.7531851906815490
  0.8322609632267728  0.8330369285225885  0.2504232604978469
  0.8329530461570940  0.8309464481107085  0.7508729849188569
  0.8356882083328614  0.1701586798683081  0.2447103540788191
  0.9969787493358240  0.6649769048192340  0.9973737049142173
  0.6682393432587759  0.0001516742918781  0.4971366636536985
  0.5017932453665708  0.4997933396949747  0.7480086420022616
  0.4952465414831835  0.8347800783422201  0.7476298682008959
  0.3360777527493468  0.6636483146842593  0.4999388036013102
 
  0.00000000E+00  0.00000000E+00  0.00000000E+00
  0.00000000E+00  0.00000000E+00  0.00000000E+00
  0.00000000E+00  0.00000000E+00  0.00000000E+00
  0.00000000E+00  0.00000000E+00  0.00000000E+00
  0.00000000E+00  0.00000000E+00  0.00000000E+00
  0.00000000E+00  0.00000000E+00  0.00000000E+00
  0.00000000E+00  0.00000000E+00  0.00000000E+00
  0.00000000E+00  0.00000000E+00  0.00000000E+00
  0.00000000E+00  0.00000000E+00  0.00000000E+00
  0.00000000E+00  0.00000000E+00  0.00000000E+00
  0.00000000E+00  0.00000000E+00  0.00000000E+00
  0.00000000E+00  0.00000000E+00  0.00000000E+00
  0.00000000E+00  0.00000000E+00  0.00000000E+00
  0.00000000E+00  0.00000000E+00  0.00000000E+00
  0.00000000E+00  0.00000000E+00  0.00000000E+00
  0.00000000E+00  0.00000000E+00  0.00000000E+00
  0.00000000E+00  0.00000000E+00  0.00000000E+00
  0.00000000E+00  0.00000000E+00  0.00000000E+00
  0.00000000E+00  0.00000000E+00  0.00000000E+00
  0.00000000E+00  0.00000000E+00  0.00000000E+00
  0.00000000E+00  0.00000000E+00  0.00000000E+00
  0.00000000E+00  0.00000000E+00  0.00000000E+00
  0.00000000E+00  0.00000000E+00  0.00000000E+00
  0.00000000E+00  0.00000000E+00  0.00000000E+00
  0.00000000E+00  0.00000000E+00  0.00000000E+00
  0.00000000E+00  0.00000000E+00  0.00000000E+00
  0.00000000E+00  0.00000000E+00  0.00000000E+00
  0.00000000E+00  0.00000000E+00  0.00000000E+00
  0.00000000E+00  0.00000000E+00  0.00000000E+00
  0.00000000E+00  0.00000000E+00  0.00000000E+00
  0.00000000E+00  0.00000000E+00  0.00000000E+00
  0.00000000E+00  0.00000000E+00  0.00000000E+00
  0.00000000E+00  0.00000000E+00  0.00000000E+00
  0.00000000E+00  0.00000000E+00  0.00000000E+00
  0.00000000E+00  0.00000000E+00  0.00000000E+00
  0.00000000E+00  0.00000000E+00  0.00000000E+00
