title                                   
    1.000000000000000     
    10.0183085875812683   -0.0117633181042585   -0.0057397504424314
    -0.0115361216228248    9.9490882880955542    0.0375031345791689
    -0.0038666262731101    0.0249211453346529    6.7485979497949593
   Hf   Nb   V_   W_   Zr
    15     4    11     3     3
Direct
  0.8413052427704457  0.4942515801849510  0.2502001128159819
  0.9881633054159877  0.0076746358220987  0.9769254493370454
  0.4945103113176614  0.8406939329400061  0.2435042615270930
  0.1614193326986282  0.4887323259167786  0.7391638096704227
  0.5230939974593554  0.5015279787447469  0.2635407793233284
  0.8285700370594782  0.8278863559014056  0.2269428999840173
  0.1809655697495316  0.1680829032814870  0.7392981942870165
  0.6510108138673800  0.3153044905451736  0.9806358751743360
  0.1665918027298687  0.1720227550776556  0.2407942050755381
  0.8353909527655787  0.1825437674254289  0.2588011565442017
  0.9757777450668144  0.9831320062604121  0.5261940628951649
  0.3146102958805557  0.6348768474146951  0.0373392551903322
  0.1820604230199194  0.8319584783492502  0.7447551690393439
  0.4911250893179542  0.4975470904019375  0.7366149605277741
  0.1752336453808780  0.8448513646049776  0.2652199941019973
  0.0132552061113813  0.6657189735722966  0.0104568969052252
  0.6642302318895332  0.0099506436398897  0.9852413443310155
  0.6591538799416554  0.0140452453928717  0.5059863510791445
  0.3377441232855674  0.3330513811694686  0.4573135112422051
  0.3620892887777885  0.0369480556172874  0.9948691309495743
  0.4930596564696472  0.1671043314491882  0.7264153241701123
  0.4951168108303250  0.1655664643276609  0.2524091390897212
  0.9949477633823065  0.3292808972221550  0.5218935698754592
  0.0001497797160752  0.6702989884596846  0.5014368012129324
  0.3647232772672382  0.0271008150430063  0.4923643285096730
  0.9865068489487356  0.3141635282574100  0.9666776951464797
  0.3532037849790726  0.3182066332725881  0.0121444678841129
  0.1438209076041304  0.5057593083748202  0.2882189622298057
  0.8283679135848416  0.8212827647638576  0.7946224622353597
  0.6622468901987801  0.3098885249944132  0.5205821988778183
  0.8264343105830960  0.1723901989543606  0.7393540280223405
  0.3214952650799887  0.6563730378816075  0.4786052657607271
  0.6675132365875101  0.6669324096859768  0.9857868453559249
  0.6900410790420466  0.6918025378215873  0.5306881143931079
  0.4883522609535689  0.8380551480628000  0.7548586121018701
  0.8377189202666742  0.4949935991660865  0.7501447651337898
 
  0.00000000E+00  0.00000000E+00  0.00000000E+00
  0.00000000E+00  0.00000000E+00  0.00000000E+00
  0.00000000E+00  0.00000000E+00  0.00000000E+00
  0.00000000E+00  0.00000000E+00  0.00000000E+00
  0.00000000E+00  0.00000000E+00  0.00000000E+00
  0.00000000E+00  0.00000000E+00  0.00000000E+00
  0.00000000E+00  0.00000000E+00  0.00000000E+00
  0.00000000E+00  0.00000000E+00  0.00000000E+00
  0.00000000E+00  0.00000000E+00  0.00000000E+00
  0.00000000E+00  0.00000000E+00  0.00000000E+00
  0.00000000E+00  0.00000000E+00  0.00000000E+00
  0.00000000E+00  0.00000000E+00  0.00000000E+00
  0.00000000E+00  0.00000000E+00  0.00000000E+00
  0.00000000E+00  0.00000000E+00  0.00000000E+00
  0.00000000E+00  0.00000000E+00  0.00000000E+00
  0.00000000E+00  0.00000000E+00  0.00000000E+00
  0.00000000E+00  0.00000000E+00  0.00000000E+00
  0.00000000E+00  0.00000000E+00  0.00000000E+00
  0.00000000E+00  0.00000000E+00  0.00000000E+00
  0.00000000E+00  0.00000000E+00  0.00000000E+00
  0.00000000E+00  0.00000000E+00  0.00000000E+00
  0.00000000E+00  0.00000000E+00  0.00000000E+00
  0.00000000E+00  0.00000000E+00  0.00000000E+00
  0.00000000E+00  0.00000000E+00  0.00000000E+00
  0.00000000E+00  0.00000000E+00  0.00000000E+00
  0.00000000E+00  0.00000000E+00  0.00000000E+00
  0.00000000E+00  0.00000000E+00  0.00000000E+00
  0.00000000E+00  0.00000000E+00  0.00000000E+00
  0.00000000E+00  0.00000000E+00  0.00000000E+00
  0.00000000E+00  0.00000000E+00  0.00000000E+00
  0.00000000E+00  0.00000000E+00  0.00000000E+00
  0.00000000E+00  0.00000000E+00  0.00000000E+00
  0.00000000E+00  0.00000000E+00  0.00000000E+00
  0.00000000E+00  0.00000000E+00  0.00000000E+00
  0.00000000E+00  0.00000000E+00  0.00000000E+00
  0.00000000E+00  0.00000000E+00  0.00000000E+00
