title                                   
    1.000000000000000     
     9.7225963277714005    0.0086099903271979    0.0133329257851645
     0.0082035699138850    9.8212211235688542   -0.0326886821237813
     0.0095266806483365   -0.0229263792696162    6.4136819346358109
   Cr   Ta   Ti   W_   Zr
     7     8     7     7     7
Direct
  0.8172465143641077  0.5010651128753878  0.7538988638235438
  0.5031936762443365  0.4996110818142512  0.7566583136767022
  0.1650552816158992  0.1760149448241037  0.7454436648475848
  0.5071032348259052  0.8092171154387202  0.7449580944242555
  0.6646626493819596  0.3594112956312614  0.9804727433016751
  0.3410280118281861  0.3341697335902367  0.9939449863669267
  0.8194797467189971  0.5049591284385926  0.2489105132968490
  0.3466749371791806  0.6682412200435834  0.9897437530808091
  0.9909761945888675  0.3374561352328200  0.5090004022335677
  0.5066911404977574  0.1938356516854114  0.7645137468618799
  0.1716318514930535  0.1781718656710041  0.2521791618743094
  0.0082049285207688  0.0106586945211546  0.0012351090756866
  0.5090480511185689  0.8183558046404968  0.2606854149018147
  0.5037945940807447  0.4943624806931126  0.2446235987110086
  0.9826559866858915  0.6504515768675105  0.0105814131764603
  0.8278021958187978  0.1591089382915740  0.2691087079980861
  0.1836634544406124  0.4922354605276666  0.7496923334294010
  0.5005195052748022  0.1943768291246144  0.2443422985267176
  0.6794798235483697  0.3533066461615917  0.5119332956228035
  0.9822468450453172  0.6406471001510425  0.4859914594839410
  0.8318160388015485  0.8335109375296668  0.2585696624921994
  0.8245292890041114  0.1600799311544066  0.7298826533697564
  0.1609879928731743  0.8265577275891758  0.2524347164458689
  0.6667772885288699  0.6572840162831213  0.9931985121563045
  0.6695561830245822  0.6527090793960042  0.5061582688387531
  0.6574620344409681  0.9989474757419146  0.5010246424748530
  0.3400630522529156  0.3335840996130344  0.5145030546064007
  0.0089750102696584  0.0111799415247944  0.4927065161081146
  0.3479764484568832  0.6654251796476416  0.5061650141303176
  0.1811219353331737  0.4964070664626732  0.2480132723713311
  0.8331923292626797  0.8347080501426944  0.7408611648986678
  0.9838489946141706  0.3340983444160415  0.9914785158194874
  0.6547092145851678  0.9963241805907046  0.9983998715306157
  0.1568226020389574  0.8200294445894158  0.7406794853215715
  0.3325823092697107  0.0002670000686891  0.9977693072812031
  0.3384206539712977  0.0032307090258712  0.5102374674405254
 
  0.00000000E+00  0.00000000E+00  0.00000000E+00
  0.00000000E+00  0.00000000E+00  0.00000000E+00
  0.00000000E+00  0.00000000E+00  0.00000000E+00
  0.00000000E+00  0.00000000E+00  0.00000000E+00
  0.00000000E+00  0.00000000E+00  0.00000000E+00
  0.00000000E+00  0.00000000E+00  0.00000000E+00
  0.00000000E+00  0.00000000E+00  0.00000000E+00
  0.00000000E+00  0.00000000E+00  0.00000000E+00
  0.00000000E+00  0.00000000E+00  0.00000000E+00
  0.00000000E+00  0.00000000E+00  0.00000000E+00
  0.00000000E+00  0.00000000E+00  0.00000000E+00
  0.00000000E+00  0.00000000E+00  0.00000000E+00
  0.00000000E+00  0.00000000E+00  0.00000000E+00
  0.00000000E+00  0.00000000E+00  0.00000000E+00
  0.00000000E+00  0.00000000E+00  0.00000000E+00
  0.00000000E+00  0.00000000E+00  0.00000000E+00
  0.00000000E+00  0.00000000E+00  0.00000000E+00
  0.00000000E+00  0.00000000E+00  0.00000000E+00
  0.00000000E+00  0.00000000E+00  0.00000000E+00
  0.00000000E+00  0.00000000E+00  0.00000000E+00
  0.00000000E+00  0.00000000E+00  0.00000000E+00
  0.00000000E+00  0.00000000E+00  0.00000000E+00
  0.00000000E+00  0.00000000E+00  0.00000000E+00
  0.00000000E+00  0.00000000E+00  0.00000000E+00
  0.00000000E+00  0.00000000E+00  0.00000000E+00
  0.00000000E+00  0.00000000E+00  0.00000000E+00
  0.00000000E+00  0.00000000E+00  0.00000000E+00
  0.00000000E+00  0.00000000E+00  0.00000000E+00
  0.00000000E+00  0.00000000E+00  0.00000000E+00
  0.00000000E+00  0.00000000E+00  0.00000000E+00
  0.00000000E+00  0.00000000E+00  0.00000000E+00
  0.00000000E+00  0.00000000E+00  0.00000000E+00
  0.00000000E+00  0.00000000E+00  0.00000000E+00
  0.00000000E+00  0.00000000E+00  0.00000000E+00
  0.00000000E+00  0.00000000E+00  0.00000000E+00
  0.00000000E+00  0.00000000E+00  0.00000000E+00
