title                                   
    1.000000000000000     
    10.1393855934459616    0.0264001154123835    0.0712058801817931
     0.0267673301256193   10.1491729162792996   -0.0014884723273684
     0.0474955479738995   -0.0009768526348582    6.7930392021319816
   Hf   Mo   Nb   Ta   Zr
    12     2    15     6     1
Direct
  0.6741212521567590  0.0012749529668028  0.0147766500195701
  0.6651996056175946  0.3338464491330839  0.4821159951826388
  0.5064414555204806  0.8385591621621487  0.7499217521182686
  0.1591484060488355  0.5043947254514052  0.2504184764522819
  0.4973525600478439  0.1610557703000524  0.7529577970492625
  0.9990317454038617  0.0025780107276958  0.5041319333507275
  0.8290309227339208  0.5007568595168763  0.7503145710427859
  0.5130749050952446  0.5013727867478011  0.7789446660335955
  0.5019882594481828  0.5106128686399671  0.2169314710829440
  0.9987282003261910  0.6730418966041753  0.9847873893738495
  0.3339977616487886  0.6603226744178130  0.5213948051824886
  0.1715235073108872  0.8303422586429576  0.2460021514709823
  0.6775824962832644  0.6794642558033743  0.0055818521648803
  0.1657087331526625  0.1645792805738608  0.2481897805201214
  0.8297793750775355  0.8281185281042198  0.2535074242493778
  0.4998803779629668  0.8306416469532607  0.2470039823479837
  0.6806688114725432  0.3214543507120169  0.0201135736805398
  0.1711380903852557  0.8451804360373316  0.7559538843407267
  0.6640610854605598  0.6669270060762642  0.4875157974305324
  0.6755377523434092  0.9988972380700432  0.4852934517871361
  0.0013890779541583  0.3216388375072796  0.5013219450791340
  0.3211894464027623  0.6715070754177503  0.9713469336597242
  0.9936672937884055  0.6742814709556910  0.5059691942234181
  0.8360134016055198  0.5008435158854567  0.2482756067673506
  0.1558007324845221  0.4885488961925333  0.7510818404241490
  0.8382582009253809  0.1758043329239030  0.7581358199720043
  0.9993106410439978  0.0021058601171475  0.9988544204855430
  0.3261380207950353  0.0061608110054365  0.4915455050416071
  0.4973567347824641  0.1620492872426738  0.2484150331257453
  0.0044145788911436  0.3279920555505527  0.0021334747682857
  0.8185457149771267  0.8242418485112637  0.7425607822122089
  0.8425241893255304  0.1701199552307529  0.2467338598441060
  0.3177178202019988  0.3176393377597648  0.0133517797194926
  0.3310885038172700  0.0081324975269368  0.0136717158223334
  0.1692715205543323  0.1639060180818817  0.7570566339803406
  0.3333188189535576  0.3316070424498108  0.4936880499938496
 
  0.00000000E+00  0.00000000E+00  0.00000000E+00
  0.00000000E+00  0.00000000E+00  0.00000000E+00
  0.00000000E+00  0.00000000E+00  0.00000000E+00
  0.00000000E+00  0.00000000E+00  0.00000000E+00
  0.00000000E+00  0.00000000E+00  0.00000000E+00
  0.00000000E+00  0.00000000E+00  0.00000000E+00
  0.00000000E+00  0.00000000E+00  0.00000000E+00
  0.00000000E+00  0.00000000E+00  0.00000000E+00
  0.00000000E+00  0.00000000E+00  0.00000000E+00
  0.00000000E+00  0.00000000E+00  0.00000000E+00
  0.00000000E+00  0.00000000E+00  0.00000000E+00
  0.00000000E+00  0.00000000E+00  0.00000000E+00
  0.00000000E+00  0.00000000E+00  0.00000000E+00
  0.00000000E+00  0.00000000E+00  0.00000000E+00
  0.00000000E+00  0.00000000E+00  0.00000000E+00
  0.00000000E+00  0.00000000E+00  0.00000000E+00
  0.00000000E+00  0.00000000E+00  0.00000000E+00
  0.00000000E+00  0.00000000E+00  0.00000000E+00
  0.00000000E+00  0.00000000E+00  0.00000000E+00
  0.00000000E+00  0.00000000E+00  0.00000000E+00
  0.00000000E+00  0.00000000E+00  0.00000000E+00
  0.00000000E+00  0.00000000E+00  0.00000000E+00
  0.00000000E+00  0.00000000E+00  0.00000000E+00
  0.00000000E+00  0.00000000E+00  0.00000000E+00
  0.00000000E+00  0.00000000E+00  0.00000000E+00
  0.00000000E+00  0.00000000E+00  0.00000000E+00
  0.00000000E+00  0.00000000E+00  0.00000000E+00
  0.00000000E+00  0.00000000E+00  0.00000000E+00
  0.00000000E+00  0.00000000E+00  0.00000000E+00
  0.00000000E+00  0.00000000E+00  0.00000000E+00
  0.00000000E+00  0.00000000E+00  0.00000000E+00
  0.00000000E+00  0.00000000E+00  0.00000000E+00
  0.00000000E+00  0.00000000E+00  0.00000000E+00
  0.00000000E+00  0.00000000E+00  0.00000000E+00
  0.00000000E+00  0.00000000E+00  0.00000000E+00
  0.00000000E+00  0.00000000E+00  0.00000000E+00
