title                                   
    1.000000000000000     
     9.5444954185130371    0.0306047543635196   -0.0232821083149548
     0.0305420457292711    9.5150649943936276   -0.0311002212738527
    -0.0152891541857366   -0.0206881688367232    6.3055261979301847
   Nb   Ti   V_   W_   Zr
     3     3    15    11     4
Direct
  0.8232202458537543  0.8313518458461431  0.7503089726183703
  0.0031478781969980  0.0006634472256266  0.5132737168246777
  0.1747443300205873  0.4969716992737361  0.7535959319137788
  0.1744140252943041  0.8158638009313606  0.2490922748156663
  0.8138103751138459  0.1658405993275665  0.2488489781543635
  0.0007085637386268  0.6496523063662991  0.9967097701881684
  0.6473996666720652  0.0045284956655252  0.5134877199234964
  0.8274681368787569  0.4986339575883818  0.7483559512587377
  0.4961123256467417  0.8256114356035980  0.2415797569593749
  0.3394683008286066  0.3325011025456703  0.4955347426339856
  0.1864193074525460  0.1770366523403837  0.7711056799607974
  0.5049333515877024  0.1734157979229778  0.2433116193304414
  0.6390717933534518  0.0048674135554876  0.9860216537003481
  0.5002498204982544  0.1710598919403807  0.7564299771822505
  0.0002516223722822  0.3391070694861966  0.9998058519846182
  0.3418667294140647  0.0003868261827549  0.9963019140000995
  0.1899291142597619  0.1869271303052784  0.2337339842670332
  0.4977251820019717  0.5004928042782595  0.2482143096356921
  0.4984436717027521  0.8301560132712780  0.7548814458757391
  0.3352184187401903  0.6669897937789528  0.9992530075296600
  0.1770641467185357  0.5023103288729587  0.2478007082753351
  0.9999885574562981  0.6578079413474640  0.5035473019334944
  0.3401011193102974  0.3350804862571906  0.0046646089480120
  0.5009204168658883  0.4995243657954944  0.7483196388797566
  0.6592456974077905  0.6629434478805933  0.9970922850257367
  0.1746500316690955  0.8250525537743769  0.7524569410666189
  0.8275217345392605  0.4975158409221976  0.2479871940911025
  0.6596924690241579  0.6636570733558855  0.5003163284349057
  0.6638858201900817  0.3329800249999195  0.9982490501365078
  0.8193132471750104  0.1680216296858745  0.7518966380864427
  0.3372842603475448  0.6648254886778346  0.4977806294588021
  0.6633200642165562  0.3333658334517651  0.5000543235536696
  0.0072654692000995  0.3260067949906258  0.4956133908793987
  0.8222536507174780  0.8371931812806608  0.2524100542664058
  0.0155448956736208  0.0155306825417938  0.0075058512065240
  0.3373455598609993  0.0061262427295148  0.4944577969999884
 
  0.00000000E+00  0.00000000E+00  0.00000000E+00
  0.00000000E+00  0.00000000E+00  0.00000000E+00
  0.00000000E+00  0.00000000E+00  0.00000000E+00
  0.00000000E+00  0.00000000E+00  0.00000000E+00
  0.00000000E+00  0.00000000E+00  0.00000000E+00
  0.00000000E+00  0.00000000E+00  0.00000000E+00
  0.00000000E+00  0.00000000E+00  0.00000000E+00
  0.00000000E+00  0.00000000E+00  0.00000000E+00
  0.00000000E+00  0.00000000E+00  0.00000000E+00
  0.00000000E+00  0.00000000E+00  0.00000000E+00
  0.00000000E+00  0.00000000E+00  0.00000000E+00
  0.00000000E+00  0.00000000E+00  0.00000000E+00
  0.00000000E+00  0.00000000E+00  0.00000000E+00
  0.00000000E+00  0.00000000E+00  0.00000000E+00
  0.00000000E+00  0.00000000E+00  0.00000000E+00
  0.00000000E+00  0.00000000E+00  0.00000000E+00
  0.00000000E+00  0.00000000E+00  0.00000000E+00
  0.00000000E+00  0.00000000E+00  0.00000000E+00
  0.00000000E+00  0.00000000E+00  0.00000000E+00
  0.00000000E+00  0.00000000E+00  0.00000000E+00
  0.00000000E+00  0.00000000E+00  0.00000000E+00
  0.00000000E+00  0.00000000E+00  0.00000000E+00
  0.00000000E+00  0.00000000E+00  0.00000000E+00
  0.00000000E+00  0.00000000E+00  0.00000000E+00
  0.00000000E+00  0.00000000E+00  0.00000000E+00
  0.00000000E+00  0.00000000E+00  0.00000000E+00
  0.00000000E+00  0.00000000E+00  0.00000000E+00
  0.00000000E+00  0.00000000E+00  0.00000000E+00
  0.00000000E+00  0.00000000E+00  0.00000000E+00
  0.00000000E+00  0.00000000E+00  0.00000000E+00
  0.00000000E+00  0.00000000E+00  0.00000000E+00
  0.00000000E+00  0.00000000E+00  0.00000000E+00
  0.00000000E+00  0.00000000E+00  0.00000000E+00
  0.00000000E+00  0.00000000E+00  0.00000000E+00
  0.00000000E+00  0.00000000E+00  0.00000000E+00
  0.00000000E+00  0.00000000E+00  0.00000000E+00
