title                                   
    1.000000000000000     
    10.0536811578945571   -0.0101786716504324    0.0160671586857352
    -0.0102116122024403   10.1244659363143423   -0.0131964156645791
     0.0107699681316690   -0.0087450151360847    6.8078743908229180
   Hf   Nb   Ta   Ti   W_
    15    12     1     2     6
Direct
  0.3325149303293529  0.3395611035103698  0.4981638239390591
  0.5032567718609613  0.5096043733174298  0.7868072365796621
  0.3365256471680453  0.6580040898445034  0.4957324647532175
  0.0011609406764208  0.9976115789230917  0.0060259798547762
  0.3400279543929798  0.0006067707484618  0.5174515004180691
  0.8279582495943174  0.1721979717041577  0.7453676639601383
  0.6695950179282590  0.6698095869487943  0.4987916801743992
  0.6567932824474454  0.3548361933925932  0.4951049402826229
  0.0100220687639734  0.3357689185209765  0.0081616648294656
  0.1610741683937604  0.8157819877724961  0.7581209674927507
  0.8242107434522339  0.1645914597646438  0.2543680547428409
  0.4946721551316742  0.8328082512931587  0.2332226058184261
  0.3282710974445351  0.0088273523857225  0.9820861741612603
  0.3196830867232521  0.3286377455291571  0.0035185518432286
  0.5180892519427900  0.1619205188650525  0.2358971126998242
  0.1596250198123244  0.5130694624120480  0.7557910396362573
  0.6744316578500289  0.9797221863571011  0.9891519493194068
  0.6645778468854218  0.9829965378255068  0.5101564240378096
  0.8358311605636501  0.5015081601619684  0.2342563791469985
  0.0025223774105498  0.3460324419979415  0.4897339401097653
  0.8424892469257088  0.8269153552153412  0.7479485962795778
  0.1551289490126067  0.1622482001047487  0.2799185059382481
  0.9945197667546140  0.9873713113605973  0.4889657783207397
  0.5239455092891632  0.1697839020703142  0.7639287283403462
  0.4985278238286881  0.5042957816814351  0.2180445870815291
  0.1455430691116817  0.1711612050602795  0.7182921581245694
  0.9962211909326228  0.6625149119190965  0.4878224631371282
  0.1692557122499210  0.8226998726130859  0.2400472807771763
  0.8354473753024294  0.5008819035096579  0.7665902140988905
  0.6828201121224780  0.6782790607050160  0.0034355774647139
  0.3267335031080734  0.6654999244939646  0.0074761190373209
  0.6731434518419306  0.3423591617476873  0.0064436506183370
  0.5012065183956196  0.8288303593472790  0.7635806443848168
  0.1617150113685852  0.5095656193786411  0.2481707003395641
  0.8382366444198297  0.8305830843279907  0.2493978460318900
  0.9942226865640791  0.6631136551896901  0.0120269962251740
 
  0.00000000E+00  0.00000000E+00  0.00000000E+00
  0.00000000E+00  0.00000000E+00  0.00000000E+00
  0.00000000E+00  0.00000000E+00  0.00000000E+00
  0.00000000E+00  0.00000000E+00  0.00000000E+00
  0.00000000E+00  0.00000000E+00  0.00000000E+00
  0.00000000E+00  0.00000000E+00  0.00000000E+00
  0.00000000E+00  0.00000000E+00  0.00000000E+00
  0.00000000E+00  0.00000000E+00  0.00000000E+00
  0.00000000E+00  0.00000000E+00  0.00000000E+00
  0.00000000E+00  0.00000000E+00  0.00000000E+00
  0.00000000E+00  0.00000000E+00  0.00000000E+00
  0.00000000E+00  0.00000000E+00  0.00000000E+00
  0.00000000E+00  0.00000000E+00  0.00000000E+00
  0.00000000E+00  0.00000000E+00  0.00000000E+00
  0.00000000E+00  0.00000000E+00  0.00000000E+00
  0.00000000E+00  0.00000000E+00  0.00000000E+00
  0.00000000E+00  0.00000000E+00  0.00000000E+00
  0.00000000E+00  0.00000000E+00  0.00000000E+00
  0.00000000E+00  0.00000000E+00  0.00000000E+00
  0.00000000E+00  0.00000000E+00  0.00000000E+00
  0.00000000E+00  0.00000000E+00  0.00000000E+00
  0.00000000E+00  0.00000000E+00  0.00000000E+00
  0.00000000E+00  0.00000000E+00  0.00000000E+00
  0.00000000E+00  0.00000000E+00  0.00000000E+00
  0.00000000E+00  0.00000000E+00  0.00000000E+00
  0.00000000E+00  0.00000000E+00  0.00000000E+00
  0.00000000E+00  0.00000000E+00  0.00000000E+00
  0.00000000E+00  0.00000000E+00  0.00000000E+00
  0.00000000E+00  0.00000000E+00  0.00000000E+00
  0.00000000E+00  0.00000000E+00  0.00000000E+00
  0.00000000E+00  0.00000000E+00  0.00000000E+00
  0.00000000E+00  0.00000000E+00  0.00000000E+00
  0.00000000E+00  0.00000000E+00  0.00000000E+00
  0.00000000E+00  0.00000000E+00  0.00000000E+00
  0.00000000E+00  0.00000000E+00  0.00000000E+00
  0.00000000E+00  0.00000000E+00  0.00000000E+00
