title                                   
    1.000000000000000     
     9.9134424611251752   -0.0282141891719131   -0.0593043700910553
    -0.0280915028430781    9.8811277611537172    0.0346107779763534
    -0.0394809260960101    0.0230794371886854    6.6017040702838381
   Hf   Mo   Ta   Zr
    10    19     4     3
Direct
  0.6699079238907615  0.6689149248897621  0.4940705798683496
  0.8232807251354402  0.1632868684392363  0.2322021605273790
  0.4920920950644003  0.4994490109651082  0.7597199307306113
  0.3365071071598607  0.9968099988436663  0.4853946182956079
  0.1797742539190708  0.1714049423402528  0.7549117567380392
  0.5026964860986638  0.8264386983774941  0.7644678288443387
  0.9993644714121004  0.3411886951807546  0.4985571180230721
  0.0012423266608721  0.3416283329291474  0.9890415099113667
  0.0034271864518018  0.0016648285218324  0.4868539831599890
  0.3342157704837803  0.9935596828580131  0.0268486617935153
  0.1764260903397670  0.5035937426226837  0.2549070178827648
  0.1642109600734400  0.8225525226018959  0.2562097456058652
  0.9926759048083795  0.6674997126839770  0.4903935727980482
  0.8307725945260032  0.8398140960835008  0.2418504952513132
  0.3310979209948925  0.3356174221490988  0.4983387240403800
  0.5058881113451292  0.1727634751286828  0.7563735106630034
  0.3278710354459236  0.6640838284295469  0.4942270216085447
  0.9972314742237955  0.9977842542923128  0.0004691567565516
  0.8272069942422959  0.5025261410884170  0.7479958027057947
  0.6703103874987306  0.9960233084260466  0.5024562164470012
  0.5041127294600827  0.8282391235006727  0.2521999852718935
  0.6655663882313831  0.9978530028244421  0.9959716678352564
  0.8289809205875684  0.1604664553492654  0.7496787903757038
  0.6692213275529255  0.6683953889733871  0.0099287677859792
  0.3262431346654111  0.6621954252986626  0.0183172825027427
  0.1787443042731667  0.4994916004697743  0.7448994609495827
  0.6694680787935425  0.3343049991850719  0.9846179637323758
  0.3298205474312965  0.3349603899983009  0.0062727688949948
  0.1735368540457358  0.1759308046483810  0.2446534180652407
  0.8196713408341978  0.5002989103475031  0.2398263760485833
  0.6752955736912725  0.3372537828060160  0.5149709113717975
  0.4917135441857567  0.4956553782315893  0.2476382287845311
  0.8295995191509533  0.8415601108164807  0.7537232299116639
  0.1635238484271184  0.8224135280732057  0.7503229935245699
  0.5106033151920144  0.1737658411455314  0.2493069738456910
  0.9976987537024584  0.6606107714803002  0.0023817694478439
 
  0.00000000E+00  0.00000000E+00  0.00000000E+00
  0.00000000E+00  0.00000000E+00  0.00000000E+00
  0.00000000E+00  0.00000000E+00  0.00000000E+00
  0.00000000E+00  0.00000000E+00  0.00000000E+00
  0.00000000E+00  0.00000000E+00  0.00000000E+00
  0.00000000E+00  0.00000000E+00  0.00000000E+00
  0.00000000E+00  0.00000000E+00  0.00000000E+00
  0.00000000E+00  0.00000000E+00  0.00000000E+00
  0.00000000E+00  0.00000000E+00  0.00000000E+00
  0.00000000E+00  0.00000000E+00  0.00000000E+00
  0.00000000E+00  0.00000000E+00  0.00000000E+00
  0.00000000E+00  0.00000000E+00  0.00000000E+00
  0.00000000E+00  0.00000000E+00  0.00000000E+00
  0.00000000E+00  0.00000000E+00  0.00000000E+00
  0.00000000E+00  0.00000000E+00  0.00000000E+00
  0.00000000E+00  0.00000000E+00  0.00000000E+00
  0.00000000E+00  0.00000000E+00  0.00000000E+00
  0.00000000E+00  0.00000000E+00  0.00000000E+00
  0.00000000E+00  0.00000000E+00  0.00000000E+00
  0.00000000E+00  0.00000000E+00  0.00000000E+00
  0.00000000E+00  0.00000000E+00  0.00000000E+00
  0.00000000E+00  0.00000000E+00  0.00000000E+00
  0.00000000E+00  0.00000000E+00  0.00000000E+00
  0.00000000E+00  0.00000000E+00  0.00000000E+00
  0.00000000E+00  0.00000000E+00  0.00000000E+00
  0.00000000E+00  0.00000000E+00  0.00000000E+00
  0.00000000E+00  0.00000000E+00  0.00000000E+00
  0.00000000E+00  0.00000000E+00  0.00000000E+00
  0.00000000E+00  0.00000000E+00  0.00000000E+00
  0.00000000E+00  0.00000000E+00  0.00000000E+00
  0.00000000E+00  0.00000000E+00  0.00000000E+00
  0.00000000E+00  0.00000000E+00  0.00000000E+00
  0.00000000E+00  0.00000000E+00  0.00000000E+00
  0.00000000E+00  0.00000000E+00  0.00000000E+00
  0.00000000E+00  0.00000000E+00  0.00000000E+00
  0.00000000E+00  0.00000000E+00  0.00000000E+00
