title                                   
    1.000000000000000     
     9.7767658892574723   -0.0176994075382265   -0.0053509225558900
    -0.0176369533317459    9.7841910709444910   -0.0372585362813985
    -0.0037181473141028   -0.0253508302440352    6.6677319943036908
   Nb   Ti   W_   Zr
    10    19     4     3
Direct
  0.5024291319364735  0.8375115995680318  0.2751493407208585
  0.8447697279855007  0.4959821781536249  0.7509585222769886
  0.4990287472460722  0.4799530806756849  0.7408277909086678
  0.6723377406692705  0.3382655788688425  0.5040708214577165
  0.9959178687078634  0.6728398815739354  0.9974977294843796
  0.3229068684036136  0.3273225579532379  0.4884571724074291
  0.5051121637839486  0.1744306006168017  0.2552986084721454
  0.9893834971999595  0.6635236153447366  0.5060186515259630
  0.8343397203596226  0.5010301938257413  0.2535198707932480
  0.3274932354574034  0.0069141163645554  0.0115410568177410
  0.4975659566418500  0.4916589574404640  0.2645742068977981
  0.1580489236497087  0.8394291728699486  0.7307411281414105
  0.9984027942606772  0.9997223787013994  0.9972812482693101
  0.6723678871751346  0.3312773840201686  0.0012608388406790
  0.3453837171025000  0.6651510046445210  0.5198035743411467
  0.1661548409507390  0.1577224088300682  0.7432901172981161
  0.1555811844858397  0.4962323574970142  0.7494352544833518
  0.0097968297102966  0.3299471450802898  0.4782742894711518
  0.1541786809529384  0.8277777900745633  0.2650056657852815
  0.8406658339384947  0.8408720105633662  0.2657264755660904
  0.3281654044096811  0.3259243996062580  0.0066145283937402
  0.3283372086039762  0.0069759826129854  0.4752722450401237
  0.0022681271347409  0.3225726235924355  0.0152555531892418
  0.1684082106240297  0.5101053579630275  0.2537392966686056
  0.4956316385254027  0.1666444556047821  0.7399339831663312
  0.6673229485302130  0.6692752791198870  0.5138871052555061
  0.8332216210684749  0.1575961754187531  0.2800758606499443
  0.8409063457060384  0.1635755307681919  0.7233788356099282
  0.4975269440181265  0.8578725735528039  0.7261683646453889
  0.6672025425465407  0.9971514631143847  0.5019283781487189
  0.1632841195317383  0.1607106624558838  0.2462171207078185
  0.0046289440053968  0.0017882953511759  0.4975935009641006
  0.8395772522267393  0.8396080015705465  0.7376382025852450
  0.3344920555878943  0.6695265719093797  0.9895233507208587
  0.6731196655337257  0.0054063024232249  0.9978062722532854
  0.6640416213293747  0.6677023122692987  0.9962350380417035
 
  0.00000000E+00  0.00000000E+00  0.00000000E+00
  0.00000000E+00  0.00000000E+00  0.00000000E+00
  0.00000000E+00  0.00000000E+00  0.00000000E+00
  0.00000000E+00  0.00000000E+00  0.00000000E+00
  0.00000000E+00  0.00000000E+00  0.00000000E+00
  0.00000000E+00  0.00000000E+00  0.00000000E+00
  0.00000000E+00  0.00000000E+00  0.00000000E+00
  0.00000000E+00  0.00000000E+00  0.00000000E+00
  0.00000000E+00  0.00000000E+00  0.00000000E+00
  0.00000000E+00  0.00000000E+00  0.00000000E+00
  0.00000000E+00  0.00000000E+00  0.00000000E+00
  0.00000000E+00  0.00000000E+00  0.00000000E+00
  0.00000000E+00  0.00000000E+00  0.00000000E+00
  0.00000000E+00  0.00000000E+00  0.00000000E+00
  0.00000000E+00  0.00000000E+00  0.00000000E+00
  0.00000000E+00  0.00000000E+00  0.00000000E+00
  0.00000000E+00  0.00000000E+00  0.00000000E+00
  0.00000000E+00  0.00000000E+00  0.00000000E+00
  0.00000000E+00  0.00000000E+00  0.00000000E+00
  0.00000000E+00  0.00000000E+00  0.00000000E+00
  0.00000000E+00  0.00000000E+00  0.00000000E+00
  0.00000000E+00  0.00000000E+00  0.00000000E+00
  0.00000000E+00  0.00000000E+00  0.00000000E+00
  0.00000000E+00  0.00000000E+00  0.00000000E+00
  0.00000000E+00  0.00000000E+00  0.00000000E+00
  0.00000000E+00  0.00000000E+00  0.00000000E+00
  0.00000000E+00  0.00000000E+00  0.00000000E+00
  0.00000000E+00  0.00000000E+00  0.00000000E+00
  0.00000000E+00  0.00000000E+00  0.00000000E+00
  0.00000000E+00  0.00000000E+00  0.00000000E+00
  0.00000000E+00  0.00000000E+00  0.00000000E+00
  0.00000000E+00  0.00000000E+00  0.00000000E+00
  0.00000000E+00  0.00000000E+00  0.00000000E+00
  0.00000000E+00  0.00000000E+00  0.00000000E+00
  0.00000000E+00  0.00000000E+00  0.00000000E+00
  0.00000000E+00  0.00000000E+00  0.00000000E+00
