title                                   
    1.000000000000000     
     9.9452761387711206    0.0171729698491041    0.0224914214240006
     0.0171737229407880   10.0483609738598769   -0.0007078399459637
     0.0150200394841747   -0.0003858727999601    6.6254916213881847
   Ta   Ti   W_   Zr
     9     9     9     9
Direct
  0.1593990611722305  0.5018806305766432  0.7328610140927907
  0.9957667881232553  0.3215568489503653  0.9953416921692977
  0.8273479205275578  0.5032645584934983  0.7620109498496532
  0.6755545731491068  0.3137915359431460  0.0027144650268482
  0.6739288840549662  0.0061324180672315  0.0027497366642564
  0.3259831432141809  0.6719917367266106  0.0067596980643998
  0.9940089476630050  0.6764861702523461  0.4902449912347251
  0.1704375392143831  0.1592517573196019  0.2510404741089829
  0.4969847047974483  0.8405928877386586  0.2256424431555502
  0.6752335431360379  0.3145293776421312  0.4956008008366908
  0.4928677766222691  0.8490064372272101  0.7681228841123442
  0.3318315222098036  0.3173492824105253  0.5060368827160318
  0.4919392908111888  0.1525681166664583  0.7485762633369646
  0.8363010745088246  0.8292166160272103  0.7651494293037828
  0.9924804347630527  0.0055628128226459  0.0149443834638632
  0.8251448158391455  0.4966098766288383  0.2399014220070583
  0.9947677974796463  0.0029893885998717  0.4875263702303840
  0.1625852639015974  0.4944570857641679  0.2791508967593543
  0.4930657094457231  0.1600261437199890  0.2487637216881922
  0.8324606354539767  0.1628778777138891  0.7576592734758165
  0.1741461422758377  0.1535973788426332  0.7497213910602127
  0.3312589370405448  0.0058542306213454  0.0045544435473062
  0.3324330172424368  0.0066290349973386  0.4916999215192348
  0.1727419711479783  0.8467940381902537  0.2507408853845732
  0.8326992494352154  0.8325502590228879  0.2338592531193413
  0.8347489055132513  0.1682224886267676  0.2447731393871564
  0.6753984117226892  0.6796453799111788  0.0032907079333668
  0.3273399299884616  0.3332349966042472  0.9946800851988655
  0.5133005428156849  0.5031630967485796  0.7591772883031709
  0.0056284178870385  0.6643021036918739  0.0143992980402459
  0.5131712093490961  0.4998948605492117  0.2372661345658429
  0.6711278830314811  0.0016951207750324  0.4970195617529427
  0.9937320917770478  0.3229895486251309  0.5052869746530391
  0.1648058550832872  0.8457665040748097  0.7486382410116690
  0.6759774469690072  0.6800442009548036  0.4927729779625238
  0.3334005626335710  0.6754751984728742  0.4913219042635006
 
  0.00000000E+00  0.00000000E+00  0.00000000E+00
  0.00000000E+00  0.00000000E+00  0.00000000E+00
  0.00000000E+00  0.00000000E+00  0.00000000E+00
  0.00000000E+00  0.00000000E+00  0.00000000E+00
  0.00000000E+00  0.00000000E+00  0.00000000E+00
  0.00000000E+00  0.00000000E+00  0.00000000E+00
  0.00000000E+00  0.00000000E+00  0.00000000E+00
  0.00000000E+00  0.00000000E+00  0.00000000E+00
  0.00000000E+00  0.00000000E+00  0.00000000E+00
  0.00000000E+00  0.00000000E+00  0.00000000E+00
  0.00000000E+00  0.00000000E+00  0.00000000E+00
  0.00000000E+00  0.00000000E+00  0.00000000E+00
  0.00000000E+00  0.00000000E+00  0.00000000E+00
  0.00000000E+00  0.00000000E+00  0.00000000E+00
  0.00000000E+00  0.00000000E+00  0.00000000E+00
  0.00000000E+00  0.00000000E+00  0.00000000E+00
  0.00000000E+00  0.00000000E+00  0.00000000E+00
  0.00000000E+00  0.00000000E+00  0.00000000E+00
  0.00000000E+00  0.00000000E+00  0.00000000E+00
  0.00000000E+00  0.00000000E+00  0.00000000E+00
  0.00000000E+00  0.00000000E+00  0.00000000E+00
  0.00000000E+00  0.00000000E+00  0.00000000E+00
  0.00000000E+00  0.00000000E+00  0.00000000E+00
  0.00000000E+00  0.00000000E+00  0.00000000E+00
  0.00000000E+00  0.00000000E+00  0.00000000E+00
  0.00000000E+00  0.00000000E+00  0.00000000E+00
  0.00000000E+00  0.00000000E+00  0.00000000E+00
  0.00000000E+00  0.00000000E+00  0.00000000E+00
  0.00000000E+00  0.00000000E+00  0.00000000E+00
  0.00000000E+00  0.00000000E+00  0.00000000E+00
  0.00000000E+00  0.00000000E+00  0.00000000E+00
  0.00000000E+00  0.00000000E+00  0.00000000E+00
  0.00000000E+00  0.00000000E+00  0.00000000E+00
  0.00000000E+00  0.00000000E+00  0.00000000E+00
  0.00000000E+00  0.00000000E+00  0.00000000E+00
  0.00000000E+00  0.00000000E+00  0.00000000E+00
