title                                   
    1.000000000000000     
     9.8979320235465345   -0.0161325259284431   -0.1087326674079258
    -0.0160287822630578    9.9594222475904495    0.0733145011610404
    -0.0724465369995118    0.0489367494850397    6.6543145446042713
   Cr   Hf   Nb   Ta
     4     7    11    14
Direct
  0.8235091948613231  0.5037229409006656  0.2490161460086995
  0.1590453389342557  0.8405591811946849  0.2428673093168143
  0.8294110098806229  0.1642373748438359  0.2482033755839765
  0.1719598422563422  0.1587734809464152  0.7482778553626233
  0.9930896139964673  0.3243710899007510  0.4851175403660193
  0.8322623861124825  0.8353993692725012  0.7526275402298666
  0.8309137195621616  0.8330464487878118  0.2620479335472368
  0.8334067980046527  0.1614147711261253  0.7613427189941149
  0.8403579953313240  0.5043029729996888  0.7546549935660352
  0.3277494046864859  0.6753300460333520  0.4969150774748528
  0.1756944507051230  0.4910630775877607  0.2338351208735645
  0.6554950840325304  0.6587371545192084  0.4962612222554128
  0.6761899689468436  0.3360976700330127  0.4825009697288323
  0.3328334999897749  0.6739503670092262  0.9909368106594414
  0.9947877757137462  0.3245071587870072  0.0152952387483865
  0.4950442580243291  0.1693977962465425  0.2509273568856045
  0.0136098493042169  0.9980134620791432  0.0133741334674653
  0.6662068411794735  0.6529492268876638  0.0130296057453307
  0.0119311521374783  0.6702952930634822  0.4914871419910938
  0.3315955272064457  0.3259365904174274  0.5094274454874181
  0.3265302675462678  0.9962098540783302  0.4968587063231880
  0.5056828656329202  0.4967135516478294  0.7488324705241567
  0.3275998473798509  0.0013999812719589  0.9911484514753326
  0.5016074762740601  0.8349529799212192  0.2446745145200495
  0.4955738956772606  0.4973407407722163  0.2458921550093223
  0.5043406916167115  0.1663656836789258  0.7424704660267665
  0.0060538364721907  0.6728197029867431  0.0224687967953727
  0.1603688842365472  0.8356081290445445  0.7532654449963658
  0.3337484961044481  0.3220842887490321  0.9777373719272759
  0.6613761529625393  0.0142847510964970  0.0211996807777268
  0.1587324298410095  0.4997140355994532  0.7591509765644773
  0.6746998006899645  0.3335376096199312  0.0217291782153737
  0.0099405669302612  0.0104724967067042  0.4968610254465702
  0.6625462829502666  0.0121923714356242  0.4842838742030722
  0.1713991337376655  0.1653490421486694  0.2429360000023806
  0.5047056610819496  0.8388493086060365  0.7523453508997875
 
  0.00000000E+00  0.00000000E+00  0.00000000E+00
  0.00000000E+00  0.00000000E+00  0.00000000E+00
  0.00000000E+00  0.00000000E+00  0.00000000E+00
  0.00000000E+00  0.00000000E+00  0.00000000E+00
  0.00000000E+00  0.00000000E+00  0.00000000E+00
  0.00000000E+00  0.00000000E+00  0.00000000E+00
  0.00000000E+00  0.00000000E+00  0.00000000E+00
  0.00000000E+00  0.00000000E+00  0.00000000E+00
  0.00000000E+00  0.00000000E+00  0.00000000E+00
  0.00000000E+00  0.00000000E+00  0.00000000E+00
  0.00000000E+00  0.00000000E+00  0.00000000E+00
  0.00000000E+00  0.00000000E+00  0.00000000E+00
  0.00000000E+00  0.00000000E+00  0.00000000E+00
  0.00000000E+00  0.00000000E+00  0.00000000E+00
  0.00000000E+00  0.00000000E+00  0.00000000E+00
  0.00000000E+00  0.00000000E+00  0.00000000E+00
  0.00000000E+00  0.00000000E+00  0.00000000E+00
  0.00000000E+00  0.00000000E+00  0.00000000E+00
  0.00000000E+00  0.00000000E+00  0.00000000E+00
  0.00000000E+00  0.00000000E+00  0.00000000E+00
  0.00000000E+00  0.00000000E+00  0.00000000E+00
  0.00000000E+00  0.00000000E+00  0.00000000E+00
  0.00000000E+00  0.00000000E+00  0.00000000E+00
  0.00000000E+00  0.00000000E+00  0.00000000E+00
  0.00000000E+00  0.00000000E+00  0.00000000E+00
  0.00000000E+00  0.00000000E+00  0.00000000E+00
  0.00000000E+00  0.00000000E+00  0.00000000E+00
  0.00000000E+00  0.00000000E+00  0.00000000E+00
  0.00000000E+00  0.00000000E+00  0.00000000E+00
  0.00000000E+00  0.00000000E+00  0.00000000E+00
  0.00000000E+00  0.00000000E+00  0.00000000E+00
  0.00000000E+00  0.00000000E+00  0.00000000E+00
  0.00000000E+00  0.00000000E+00  0.00000000E+00
  0.00000000E+00  0.00000000E+00  0.00000000E+00
  0.00000000E+00  0.00000000E+00  0.00000000E+00
  0.00000000E+00  0.00000000E+00  0.00000000E+00
