WMoRh-2 alloy: 26 W, 26 Mo, 2 Rh        
    1.000000000000000     
     9.5121300317422417    0.0000924506682838    0.0049568542619397
     0.0000930529242007    9.5113742075749901    0.0046784486992485
     0.0049547410609650    0.0046786783175395    9.5125829282951138
   W    Mo   Rh
    26    26     2
Direct
  0.1672154067098859  0.1645378858808328  0.4970822947149216
  0.1663966598334028  0.1652853881959260  0.8355136219909198
  0.0011938643552156  0.3353684465205262  0.9945738737620502
  0.1655432359048561  0.5000616686322630  0.1668762387180820
  0.1668829855631060  0.5015392198289064  0.4996055426495900
  0.1654655286898006  0.8338344067962709  0.1670262133303311
  0.1667020829151511  0.8331626942800199  0.5001736476356555
  0.9994127471054313  0.6646049020052871  0.6673697012030360
  0.1662760529454843  0.8329387741811587  0.8335141572430373
  0.3341863067287107  0.9997635415708856  0.0008396794758525
  0.5028593883577699  0.1672747069179792  0.1662285792386697
  0.3330430530506590  0.0004958435466449  0.6665510415378932
  0.5007589035574043  0.1666556191105428  0.8337010019733242
  0.3328400676220227  0.3333966098445131  0.0002205116287612
  0.3333659224021375  0.3335464971035478  0.3336993871712934
  0.3311792358222974  0.3329090059405075  0.6667955700891710
  0.4996160445550899  0.5005255184667448  0.8331779391351333
  0.3345349862078848  0.6671422487584593  0.3323157857308061
  0.3329899683466664  0.6664428027294420  0.6664814312207312
  0.5004526264179461  0.8325494309927493  0.8326715863776073
  0.6655629645008503  0.9977819315029421  0.3336331899710174
  0.8307733938691868  0.1647454856628556  0.8394639496291489
  0.6658783959169980  0.3353071093724225  0.3351003133998702
  0.8314853188690776  0.5011917027100736  0.4980982199930892
  0.6700938411323492  0.3326107808817227  0.6661026296989974
  0.8329554238682917  0.8341889570224126  0.8337405704243324
  0.0016025041529986  0.9995956384156059  0.9978222417044336
  0.1629552629034094  0.1670277054159470  0.1672872624182133
  0.0021526663975777  0.9985621785587782  0.3353232533135682
  0.9993464168826378  0.0026187539121594  0.6659362279689276
  0.0024031001104916  0.3355122583469736  0.3390405726314967
  0.1667711341170346  0.5012311109452909  0.8340735994328483
  0.9995655600168689  0.6666337379657534  0.0001563009802794
  0.9998708592966850  0.6668103108980574  0.3340035745731527
  0.3344098803822462  0.9993017112265790  0.3324517192756176
  0.5003937924308985  0.1662063553188204  0.4986799905134660
  0.5010649668123932  0.4998215540432369  0.1667397720085404
  0.4997769200739555  0.5006647624836518  0.5006362974777261
  0.3342906630098383  0.6674500861476460  0.0011326097845981
  0.5007162444863198  0.8338055075581963  0.1671466466197202
  0.5000974289626328  0.8327220496946239  0.5008990425310387
  0.6659419547646692  0.9984684908323871  0.9996615753124374
  0.8303332861325856  0.1642180445837482  0.4925937392354029
  0.6675003675034716  0.0005826674690681  0.6661551842443529
  0.6664808011684258  0.3354181656165736  0.9975772373257286
  0.8335955629962157  0.4971583733459966  0.1672881797495691
  0.8313473548864536  0.5011106783968344  0.8356005687306762
  0.6670821384131074  0.6674608609697117  0.0008245903233828
  0.8338137159235615  0.8362859570427759  0.1664043496564389
  0.6668618717756587  0.6674636223082615  0.3324914733666375
  0.8327173448938936  0.8338056667108731  0.4988404171311203
  0.6675567806257376  0.6663803661808743  0.6666454292526325
  0.9992812906463726  0.3267955683939405  0.6630164666850078
  0.8344065463436362  0.1690274144167797  0.1694381402108133
 
  0.00000000E+00  0.00000000E+00  0.00000000E+00
  0.00000000E+00  0.00000000E+00  0.00000000E+00
  0.00000000E+00  0.00000000E+00  0.00000000E+00
  0.00000000E+00  0.00000000E+00  0.00000000E+00
  0.00000000E+00  0.00000000E+00  0.00000000E+00
  0.00000000E+00  0.00000000E+00  0.00000000E+00
  0.00000000E+00  0.00000000E+00  0.00000000E+00
  0.00000000E+00  0.00000000E+00  0.00000000E+00
  0.00000000E+00  0.00000000E+00  0.00000000E+00
  0.00000000E+00  0.00000000E+00  0.00000000E+00
  0.00000000E+00  0.00000000E+00  0.00000000E+00
  0.00000000E+00  0.00000000E+00  0.00000000E+00
  0.00000000E+00  0.00000000E+00  0.00000000E+00
  0.00000000E+00  0.00000000E+00  0.00000000E+00
  0.00000000E+00  0.00000000E+00  0.00000000E+00
  0.00000000E+00  0.00000000E+00  0.00000000E+00
  0.00000000E+00  0.00000000E+00  0.00000000E+00
  0.00000000E+00  0.00000000E+00  0.00000000E+00
  0.00000000E+00  0.00000000E+00  0.00000000E+00
  0.00000000E+00  0.00000000E+00  0.00000000E+00
  0.00000000E+00  0.00000000E+00  0.00000000E+00
  0.00000000E+00  0.00000000E+00  0.00000000E+00
  0.00000000E+00  0.00000000E+00  0.00000000E+00
  0.00000000E+00  0.00000000E+00  0.00000000E+00
  0.00000000E+00  0.00000000E+00  0.00000000E+00
  0.00000000E+00  0.00000000E+00  0.00000000E+00
  0.00000000E+00  0.00000000E+00  0.00000000E+00
  0.00000000E+00  0.00000000E+00  0.00000000E+00
  0.00000000E+00  0.00000000E+00  0.00000000E+00
  0.00000000E+00  0.00000000E+00  0.00000000E+00
  0.00000000E+00  0.00000000E+00  0.00000000E+00
  0.00000000E+00  0.00000000E+00  0.00000000E+00
  0.00000000E+00  0.00000000E+00  0.00000000E+00
  0.00000000E+00  0.00000000E+00  0.00000000E+00
  0.00000000E+00  0.00000000E+00  0.00000000E+00
  0.00000000E+00  0.00000000E+00  0.00000000E+00
  0.00000000E+00  0.00000000E+00  0.00000000E+00
  0.00000000E+00  0.00000000E+00  0.00000000E+00
  0.00000000E+00  0.00000000E+00  0.00000000E+00
  0.00000000E+00  0.00000000E+00  0.00000000E+00
  0.00000000E+00  0.00000000E+00  0.00000000E+00
  0.00000000E+00  0.00000000E+00  0.00000000E+00
  0.00000000E+00  0.00000000E+00  0.00000000E+00
  0.00000000E+00  0.00000000E+00  0.00000000E+00
  0.00000000E+00  0.00000000E+00  0.00000000E+00
  0.00000000E+00  0.00000000E+00  0.00000000E+00
  0.00000000E+00  0.00000000E+00  0.00000000E+00
  0.00000000E+00  0.00000000E+00  0.00000000E+00
  0.00000000E+00  0.00000000E+00  0.00000000E+00
  0.00000000E+00  0.00000000E+00  0.00000000E+00
  0.00000000E+00  0.00000000E+00  0.00000000E+00
  0.00000000E+00  0.00000000E+00  0.00000000E+00
  0.00000000E+00  0.00000000E+00  0.00000000E+00
  0.00000000E+00  0.00000000E+00  0.00000000E+00
