title                                   
    1.000000000000000     
     9.8802188605864991   -0.0460225073256993    0.0113386059111223
    -0.0462918599307354    9.8085577066977461   -0.0179007522096588
     0.0077720768147355   -0.0119958591763665    6.5101894457737588
   Hf   Mo   W_
    12    12    12
Direct
  0.6612121327903679  0.6699840449202910  0.5105394453692824
  0.4990705566901354  0.8349989636776058  0.2531623731516959
  0.8242335966919967  0.4906913270631392  0.7499947840984262
  0.1700978211418658  0.4979341197525287  0.7395484996211366
  0.1763637596036247  0.1694168286198092  0.2537910375666286
  0.0019686411788769  0.6689430838457042  0.0046599828511518
  0.9897734710673447  0.9968627880052097  0.5020071033480988
  0.3469324907664060  0.0052465158824333  0.9840202776046709
  0.9966136134751551  0.3242906161030206  0.0112691989039035
  0.1726857732782179  0.1713044786960793  0.7372258713441937
  0.1759754745773421  0.8344462382764561  0.2541273471612726
  0.8238375972717549  0.4955987929872521  0.2564097952098621
  0.9902169403572998  0.9944582314885864  0.9939316811585925
  0.3435830204346217  0.0024274929000967  0.5083089858921994
  0.6624853755633353  0.3240801839914482  0.0019563560110711
  0.6637998495129196  0.6717122560558693  0.0005675621733090
  0.5060577912764614  0.1720729463450823  0.7432034739220654
  0.5056902091224842  0.1728176031334741  0.2497418513310947
  0.9924626681228972  0.3271903150608750  0.4912329195355483
  0.3361543336331465  0.6629899690975165  0.5012593677138071
  0.3453592288505050  0.3379400543543056  0.9986742588592250
  0.6576365702406832  0.3253362682879413  0.4993000750030347
  0.6726469532981696  0.0019541804893990  0.5045901881654444
  0.8245840641197120  0.1645600237777458  0.2526223098206941
  0.8287840847722308  0.8347215026138954  0.7584840050099260
  0.1744807792829306  0.5019820814034190  0.2576359831630199
  0.6672302697533468  0.0034090350785760  0.9957154129905419
  0.9944397875331035  0.6778683885422723  0.5055271730754427
  0.3344039031412080  0.6657493910071608  0.9933185997105980
  0.8267013655510169  0.8345124485914184  0.2481823124287814
  0.1718137204638310  0.8298194710237112  0.7448130241326751
  0.3456691293274332  0.3393803163855296  0.4917476792034279
  0.4971684986736591  0.4990861930618564  0.2447807851022574
  0.8232455131404421  0.1643566589165530  0.7515497025869067
  0.4944263300614509  0.4973775890914567  0.7539311530844017
  0.5021946852340236  0.8344796014722746  0.7521694236955909
 
  0.00000000E+00  0.00000000E+00  0.00000000E+00
  0.00000000E+00  0.00000000E+00  0.00000000E+00
  0.00000000E+00  0.00000000E+00  0.00000000E+00
  0.00000000E+00  0.00000000E+00  0.00000000E+00
  0.00000000E+00  0.00000000E+00  0.00000000E+00
  0.00000000E+00  0.00000000E+00  0.00000000E+00
  0.00000000E+00  0.00000000E+00  0.00000000E+00
  0.00000000E+00  0.00000000E+00  0.00000000E+00
  0.00000000E+00  0.00000000E+00  0.00000000E+00
  0.00000000E+00  0.00000000E+00  0.00000000E+00
  0.00000000E+00  0.00000000E+00  0.00000000E+00
  0.00000000E+00  0.00000000E+00  0.00000000E+00
  0.00000000E+00  0.00000000E+00  0.00000000E+00
  0.00000000E+00  0.00000000E+00  0.00000000E+00
  0.00000000E+00  0.00000000E+00  0.00000000E+00
  0.00000000E+00  0.00000000E+00  0.00000000E+00
  0.00000000E+00  0.00000000E+00  0.00000000E+00
  0.00000000E+00  0.00000000E+00  0.00000000E+00
  0.00000000E+00  0.00000000E+00  0.00000000E+00
  0.00000000E+00  0.00000000E+00  0.00000000E+00
  0.00000000E+00  0.00000000E+00  0.00000000E+00
  0.00000000E+00  0.00000000E+00  0.00000000E+00
  0.00000000E+00  0.00000000E+00  0.00000000E+00
  0.00000000E+00  0.00000000E+00  0.00000000E+00
  0.00000000E+00  0.00000000E+00  0.00000000E+00
  0.00000000E+00  0.00000000E+00  0.00000000E+00
  0.00000000E+00  0.00000000E+00  0.00000000E+00
  0.00000000E+00  0.00000000E+00  0.00000000E+00
  0.00000000E+00  0.00000000E+00  0.00000000E+00
  0.00000000E+00  0.00000000E+00  0.00000000E+00
  0.00000000E+00  0.00000000E+00  0.00000000E+00
  0.00000000E+00  0.00000000E+00  0.00000000E+00
  0.00000000E+00  0.00000000E+00  0.00000000E+00
  0.00000000E+00  0.00000000E+00  0.00000000E+00
  0.00000000E+00  0.00000000E+00  0.00000000E+00
  0.00000000E+00  0.00000000E+00  0.00000000E+00
