title                                   
    1.000000000000000     
     9.9727274500159950    0.0287691888725048   -0.0214055457089236
     0.0288547419680032    9.9991079124047850   -0.0057809142491117
    -0.0143227369702072   -0.0039268913886669    6.6610327110345207
   Hf   Nb   Ta   V_
     7    11    14     4
Direct
  0.1766394972053575  0.4968283981355839  0.2577103569993113
  0.9960280949289455  0.6686109059666947  0.5004978166627652
  0.5012944700167239  0.5079260047240339  0.7342444593100197
  0.9967609431878159  0.0003585113662581  0.4957712369844600
  0.3405305210303666  0.0022875086450114  0.0005421667711758
  0.3465606218887558  0.3182350229833446  0.9835827608322276
  0.4988605346459636  0.5011495330616285  0.2623816403428663
  0.6687347620224884  0.0034990255287894  0.4984973791684695
  0.9925776792598953  0.3317439527910651  0.5024317942928818
  0.8295804643741107  0.4928398999229486  0.2460305649423660
  0.1561201808637520  0.1684816339937356  0.7528483737404130
  0.6758247964646102  0.6697536885715607  0.4948639798948378
  0.1715396320850573  0.8305860686991480  0.2499453321545104
  0.6699809950778359  0.6670763483579520  0.0010654619117219
  0.1711339143154049  0.8315435552239450  0.7501949238763288
  0.9925587454735876  0.3318681930364207  0.0017145848836506
  0.5020657922620799  0.8290979213138385  0.2550483015640097
  0.8279648424876243  0.1706418145220638  0.7490431514940923
  0.8230275380213001  0.8345550084302502  0.7617813861085452
  0.0001202395784716  0.6677444668456118  0.9976269346572266
  0.8283204084906473  0.4952865200194196  0.7525737556021994
  0.5142223435941418  0.1696229128877818  0.2744748310551444
  0.1590499912635366  0.1754827194814794  0.2523417401415813
  0.9965260552438551  0.0021233859728369  0.0032826055439799
  0.3327319988389519  0.9990886129719883  0.5012927121121393
  0.1697431655521910  0.5012301611673138  0.7498515300580522
  0.3285159529266934  0.6780341204397402  0.9954040247953913
  0.6610686464921045  0.0073054322503268  0.9982481878908160
  0.3341751089011353  0.3138015577903985  0.5234990296847428
  0.8245993325312213  0.8368883284201090  0.2346367948841248
  0.5019937813700395  0.8277172348172144  0.7416847392985346
  0.6672074847072409  0.3242378361716973  0.0014191774538617
  0.8289031277139927  0.1725484232129091  0.2482789752892174
  0.3213384446010323  0.6891896549531680  0.5084342871037961
  0.5167415134637210  0.1600400978924270  0.7221519938098311
  0.6769583791193554  0.3225755394312841  0.4966030086847084
 
  0.00000000E+00  0.00000000E+00  0.00000000E+00
  0.00000000E+00  0.00000000E+00  0.00000000E+00
  0.00000000E+00  0.00000000E+00  0.00000000E+00
  0.00000000E+00  0.00000000E+00  0.00000000E+00
  0.00000000E+00  0.00000000E+00  0.00000000E+00
  0.00000000E+00  0.00000000E+00  0.00000000E+00
  0.00000000E+00  0.00000000E+00  0.00000000E+00
  0.00000000E+00  0.00000000E+00  0.00000000E+00
  0.00000000E+00  0.00000000E+00  0.00000000E+00
  0.00000000E+00  0.00000000E+00  0.00000000E+00
  0.00000000E+00  0.00000000E+00  0.00000000E+00
  0.00000000E+00  0.00000000E+00  0.00000000E+00
  0.00000000E+00  0.00000000E+00  0.00000000E+00
  0.00000000E+00  0.00000000E+00  0.00000000E+00
  0.00000000E+00  0.00000000E+00  0.00000000E+00
  0.00000000E+00  0.00000000E+00  0.00000000E+00
  0.00000000E+00  0.00000000E+00  0.00000000E+00
  0.00000000E+00  0.00000000E+00  0.00000000E+00
  0.00000000E+00  0.00000000E+00  0.00000000E+00
  0.00000000E+00  0.00000000E+00  0.00000000E+00
  0.00000000E+00  0.00000000E+00  0.00000000E+00
  0.00000000E+00  0.00000000E+00  0.00000000E+00
  0.00000000E+00  0.00000000E+00  0.00000000E+00
  0.00000000E+00  0.00000000E+00  0.00000000E+00
  0.00000000E+00  0.00000000E+00  0.00000000E+00
  0.00000000E+00  0.00000000E+00  0.00000000E+00
  0.00000000E+00  0.00000000E+00  0.00000000E+00
  0.00000000E+00  0.00000000E+00  0.00000000E+00
  0.00000000E+00  0.00000000E+00  0.00000000E+00
  0.00000000E+00  0.00000000E+00  0.00000000E+00
  0.00000000E+00  0.00000000E+00  0.00000000E+00
  0.00000000E+00  0.00000000E+00  0.00000000E+00
  0.00000000E+00  0.00000000E+00  0.00000000E+00
  0.00000000E+00  0.00000000E+00  0.00000000E+00
  0.00000000E+00  0.00000000E+00  0.00000000E+00
  0.00000000E+00  0.00000000E+00  0.00000000E+00
