title                                   
    1.000000000000000     
     9.6103702744399229   -0.0013183763713346   -0.0143447824537636
    -0.0012088533455069    9.5744862810129145    0.0290015043259694
    -0.0096144436765301    0.0194381807556669    6.4199948055782974
   Cr   Hf   Mo   Ta   W_
     8     7     7     7     7
Direct
  0.6589455638718889  0.3466066530963374  0.4903922729558516
  0.1666658720883802  0.1630158411216769  0.7480469736057884
  0.3281573251462646  0.9929352704781635  0.4929148693170546
  0.6621498542905542  0.6668194354019263  0.5006646601561187
  0.4851682595817692  0.1645852325126924  0.2538832046863391
  0.1658873452541414  0.4899985635180926  0.2550584842854704
  0.1693082257526584  0.8427290913625711  0.7406369656030023
  0.0126737194457291  0.9969462142212890  0.0033009596237648
  0.6542558021616642  0.3322053522907211  0.0111993107156820
  0.8417320048400185  0.1687675167767253  0.7462429911255128
  0.0110485692687519  0.6720601513622668  0.0095019948726645
  0.8361558451707580  0.8350319925909560  0.7473290449408836
  0.6565633545720502  0.0000486660623054  0.0114971059365558
  0.3303829228007515  0.6662972877380753  0.0018691338156103
  0.4946575292441366  0.1633012934733173  0.7211751094930463
  0.1697152655184055  0.8401912428819074  0.2615088880838030
  0.0067592549815032  0.3342721149523769  0.4980582310339798
  0.6622020308939867  0.9963232245221860  0.4887726421797609
  0.0085802206621537  0.6694653234100372  0.4988075572597523
  0.5010978548232714  0.5003932951363623  0.7413449122413240
  0.0045622855178991  0.3368687268073032  0.0037349637382817
  0.3366871141472672  0.6678691574294575  0.5013451245233256
  0.8426890020197035  0.1681652693097462  0.2577818531879004
  0.1637941195392187  0.1630510348593717  0.2444169648217596
  0.8315092649327198  0.5022404927578066  0.7434925148330720
  0.8305576577184439  0.5023411264692754  0.2668867884986028
  0.3300381893614528  0.3334244001799149  0.4867517317645635
  0.1647732996134437  0.4929485515471370  0.7434050324252723
  0.3291594157142725  0.9951080228413289  0.9920594540071406
  0.8341323910059728  0.8342514460281549  0.2638985661235083
  0.6616434929736030  0.6670889600779049  0.0085667117639545
  0.4985393038369637  0.8307918092217719  0.2642475076547797
  0.5001970147538373  0.8315659806749451  0.7365537085872234
  0.5028396551599457  0.5031002222490955  0.2618288019126851
  0.3324322187607649  0.3315151279719899  0.9990521348205235
  0.0143387545756610  0.9976759086647888  0.5037728294054418
 
  0.00000000E+00  0.00000000E+00  0.00000000E+00
  0.00000000E+00  0.00000000E+00  0.00000000E+00
  0.00000000E+00  0.00000000E+00  0.00000000E+00
  0.00000000E+00  0.00000000E+00  0.00000000E+00
  0.00000000E+00  0.00000000E+00  0.00000000E+00
  0.00000000E+00  0.00000000E+00  0.00000000E+00
  0.00000000E+00  0.00000000E+00  0.00000000E+00
  0.00000000E+00  0.00000000E+00  0.00000000E+00
  0.00000000E+00  0.00000000E+00  0.00000000E+00
  0.00000000E+00  0.00000000E+00  0.00000000E+00
  0.00000000E+00  0.00000000E+00  0.00000000E+00
  0.00000000E+00  0.00000000E+00  0.00000000E+00
  0.00000000E+00  0.00000000E+00  0.00000000E+00
  0.00000000E+00  0.00000000E+00  0.00000000E+00
  0.00000000E+00  0.00000000E+00  0.00000000E+00
  0.00000000E+00  0.00000000E+00  0.00000000E+00
  0.00000000E+00  0.00000000E+00  0.00000000E+00
  0.00000000E+00  0.00000000E+00  0.00000000E+00
  0.00000000E+00  0.00000000E+00  0.00000000E+00
  0.00000000E+00  0.00000000E+00  0.00000000E+00
  0.00000000E+00  0.00000000E+00  0.00000000E+00
  0.00000000E+00  0.00000000E+00  0.00000000E+00
  0.00000000E+00  0.00000000E+00  0.00000000E+00
  0.00000000E+00  0.00000000E+00  0.00000000E+00
  0.00000000E+00  0.00000000E+00  0.00000000E+00
  0.00000000E+00  0.00000000E+00  0.00000000E+00
  0.00000000E+00  0.00000000E+00  0.00000000E+00
  0.00000000E+00  0.00000000E+00  0.00000000E+00
  0.00000000E+00  0.00000000E+00  0.00000000E+00
  0.00000000E+00  0.00000000E+00  0.00000000E+00
  0.00000000E+00  0.00000000E+00  0.00000000E+00
  0.00000000E+00  0.00000000E+00  0.00000000E+00
  0.00000000E+00  0.00000000E+00  0.00000000E+00
  0.00000000E+00  0.00000000E+00  0.00000000E+00
  0.00000000E+00  0.00000000E+00  0.00000000E+00
  0.00000000E+00  0.00000000E+00  0.00000000E+00
