WMoPd-10 alloy: 22 W, 22 Mo, 10 Pd      
    1.000000000000000     
     9.4909934762318144   -0.0179706191415722    0.0189509603677112
    -0.0178469251859336    9.5853308571739149    0.0292121461542197
     0.0189652105085282    0.0293832977473380    9.4559871105371567
   W    Mo   Pd
    22    22    10
Direct
  0.0077080037843515  0.9862856206378297  0.9936417272437552
  0.9986955755640494  0.9990241156113271  0.3457048771906912
  0.0049876843037282  0.9985883562991518  0.6662500414836288
  0.1585506486963979  0.4993223357170393  0.1638447608914646
  0.1593688065387155  0.4961613967087501  0.5016450679278535
  0.1660354377881674  0.4992277244615337  0.8329254924345193
  0.0006038138438811  0.6677153720216893  0.9981395392308556
  0.1698379840404911  0.8285507693585785  0.8316544449743617
  0.3389757417384160  0.0023457578087758  0.9912824979109658
  0.4998281563048081  0.1614081696424563  0.1631240478445051
  0.3386329422457379  0.0059606887348309  0.3399264976471770
  0.4984385544539265  0.4990984982677276  0.8319281432980929
  0.4937104880150258  0.8365531935769326  0.1660253149919342
  0.5005742167867524  0.8401129031741732  0.4985717427996832
  0.6616207731995445  0.9966065817397762  0.0000878842147145
  0.6664276214124456  0.9978780242919640  0.3339811489757096
  0.6654495806575511  0.3314475472519263  0.0089900938903966
  0.8314380364111926  0.5006006819277857  0.8366409942312245
  0.8346131607641212  0.8304160274989627  0.1672766660238949
  0.6580383543425867  0.6689596909512687  0.3386959812366328
  0.8316290722262210  0.8325499375477747  0.5011001602778435
  0.6652351004142645  0.6672090458822026  0.6663529896307807
  0.1567404713206244  0.1705795155677450  0.4962673300732376
  0.1575116046640588  0.1730613336286382  0.8410551979820795
  0.0052554603475485  0.3463670272821204  0.9983729758945685
  0.9952357765959547  0.3358980902673494  0.3415762099892703
  0.9992125012022086  0.3362613311680747  0.6649011916790144
  0.0029352925138326  0.6668458220812852  0.3397154524143247
  0.1660179215298498  0.8362245838467572  0.4895013681783524
  0.0003958377410669  0.6689304653587413  0.6671362101002245
  0.5061504171355367  0.1726317718547818  0.8326052594015962
  0.3373291078751848  0.3356685374498625  0.0020197870759588
  0.5071531560099771  0.5008079892157511  0.1556168496561128
  0.5042944223366277  0.4876488728168127  0.5019498383804901
  0.3284276409788021  0.3342729272588159  0.6683411498461638
  0.3324162562475550  0.6626479099687899  0.9997481695418529
  0.3336126322948871  0.6647073098342133  0.6613002293883667
  0.5001166635196128  0.8318733940897047  0.8297540019863234
  0.8321312459816141  0.1642650949779068  0.5084044671762555
  0.6632840949257428  0.9938851498929182  0.6664984471309907
  0.8313564857594002  0.5030828593103749  0.5003998819001225
  0.6680131143893036  0.3446054905196334  0.6694998064556117
  0.6625543482737228  0.6706682982001979  0.9994357089845138
  0.8327430109882457  0.8325522913745402  0.8329188433925694
  0.1576502102448529  0.1582156578404508  0.1642969158260570
  0.1762887348474891  0.8366474317700394  0.1744488117940293
  0.5053151554596269  0.1760332515786729  0.5009773386430325
  0.3297066980409582  0.0092782031364749  0.6684124514800089
  0.3307382765718074  0.3349711045332313  0.3250640028902652
  0.3381198353680688  0.6538901531726822  0.3388746749776530
  0.8482664862743334  0.1536890665049953  0.1515951598983207
  0.8351045185119474  0.1626717859771318  0.8368629885265264
  0.8269142894556865  0.5127441329858868  0.1702647828057948
  0.6786117580486641  0.3223555761523683  0.3228080641891566
 
  0.00000000E+00  0.00000000E+00  0.00000000E+00
  0.00000000E+00  0.00000000E+00  0.00000000E+00
  0.00000000E+00  0.00000000E+00  0.00000000E+00
  0.00000000E+00  0.00000000E+00  0.00000000E+00
  0.00000000E+00  0.00000000E+00  0.00000000E+00
  0.00000000E+00  0.00000000E+00  0.00000000E+00
  0.00000000E+00  0.00000000E+00  0.00000000E+00
  0.00000000E+00  0.00000000E+00  0.00000000E+00
  0.00000000E+00  0.00000000E+00  0.00000000E+00
  0.00000000E+00  0.00000000E+00  0.00000000E+00
  0.00000000E+00  0.00000000E+00  0.00000000E+00
  0.00000000E+00  0.00000000E+00  0.00000000E+00
  0.00000000E+00  0.00000000E+00  0.00000000E+00
  0.00000000E+00  0.00000000E+00  0.00000000E+00
  0.00000000E+00  0.00000000E+00  0.00000000E+00
  0.00000000E+00  0.00000000E+00  0.00000000E+00
  0.00000000E+00  0.00000000E+00  0.00000000E+00
  0.00000000E+00  0.00000000E+00  0.00000000E+00
  0.00000000E+00  0.00000000E+00  0.00000000E+00
  0.00000000E+00  0.00000000E+00  0.00000000E+00
  0.00000000E+00  0.00000000E+00  0.00000000E+00
  0.00000000E+00  0.00000000E+00  0.00000000E+00
  0.00000000E+00  0.00000000E+00  0.00000000E+00
  0.00000000E+00  0.00000000E+00  0.00000000E+00
  0.00000000E+00  0.00000000E+00  0.00000000E+00
  0.00000000E+00  0.00000000E+00  0.00000000E+00
  0.00000000E+00  0.00000000E+00  0.00000000E+00
  0.00000000E+00  0.00000000E+00  0.00000000E+00
  0.00000000E+00  0.00000000E+00  0.00000000E+00
  0.00000000E+00  0.00000000E+00  0.00000000E+00
  0.00000000E+00  0.00000000E+00  0.00000000E+00
  0.00000000E+00  0.00000000E+00  0.00000000E+00
  0.00000000E+00  0.00000000E+00  0.00000000E+00
  0.00000000E+00  0.00000000E+00  0.00000000E+00
  0.00000000E+00  0.00000000E+00  0.00000000E+00
  0.00000000E+00  0.00000000E+00  0.00000000E+00
  0.00000000E+00  0.00000000E+00  0.00000000E+00
  0.00000000E+00  0.00000000E+00  0.00000000E+00
  0.00000000E+00  0.00000000E+00  0.00000000E+00
  0.00000000E+00  0.00000000E+00  0.00000000E+00
  0.00000000E+00  0.00000000E+00  0.00000000E+00
  0.00000000E+00  0.00000000E+00  0.00000000E+00
  0.00000000E+00  0.00000000E+00  0.00000000E+00
  0.00000000E+00  0.00000000E+00  0.00000000E+00
  0.00000000E+00  0.00000000E+00  0.00000000E+00
  0.00000000E+00  0.00000000E+00  0.00000000E+00
  0.00000000E+00  0.00000000E+00  0.00000000E+00
  0.00000000E+00  0.00000000E+00  0.00000000E+00
  0.00000000E+00  0.00000000E+00  0.00000000E+00
  0.00000000E+00  0.00000000E+00  0.00000000E+00
  0.00000000E+00  0.00000000E+00  0.00000000E+00
  0.00000000E+00  0.00000000E+00  0.00000000E+00
  0.00000000E+00  0.00000000E+00  0.00000000E+00
  0.00000000E+00  0.00000000E+00  0.00000000E+00
