title                                   
    1.000000000000000     
    10.1080379257698016    0.0030115206513912    0.1063602196092124
     0.0026763586217964   10.1496661212590364   -0.0061051562279006
     0.0707577276001413   -0.0039425945742377    6.8555658890107107
   Hf   Nb   Ta   Ti   Zr
    12     2    15     6     1
Direct
  0.8317014045779061  0.8280565138552802  0.7370127930244337
  0.0184981530657709  0.6678812332407915  0.0131959120145595
  0.3409690545019899  0.3347072230531154  0.5135051495375009
  0.1750564125572893  0.1611390318754857  0.2583769016215101
  0.3229213657394894  0.3397846820232573  0.9804331479610155
  0.1585237390827459  0.8431875926471193  0.7156903974202748
  0.3436077015842898  0.6523147960155455  0.5189570430662940
  0.8321323207445275  0.4990236993125947  0.2518361982078900
  0.6513265993148565  0.3309227830043682  0.5050056751945746
  0.3585527100588877  0.0175607772658282  0.5309029641588197
  0.4949145907757213  0.8336853125877823  0.2427906853255166
  0.8360112253726371  0.5011670733312457  0.7473183592571431
  0.6704524679692270  0.6735458287829417  0.0057462216896624
  0.0045537885345510  0.6717528291974020  0.4674204468845957
  0.3335121318292948  0.9986510933269273  0.9817466487429982
  0.8331386010096153  0.1696753683494592  0.7521845257592688
  0.5125864683708841  0.8351698106294450  0.7687990776379721
  0.6676238483919192  0.0055050042862774  0.4999694654299418
  0.6781867896470573  0.0019536547125654  0.0092223403101670
  0.5166462848775950  0.5101815635390352  0.7931589752014432
  0.6477186973868498  0.6631831335985510  0.5055279626478111
  0.6695697263002884  0.3272750065081880  0.0084784992623099
  0.0079172831890943  0.3320023186295842  0.9945645038246056
  0.8299605340408647  0.1747851097617925  0.2473901954970188
  0.4985704699904758  0.1631263736710338  0.2253784764595181
  0.1610361684052322  0.4897891177547820  0.2671387169247694
  0.8198903246330218  0.8263444326038254  0.2575116124381722
  0.1817953212462129  0.8387683268690935  0.2626274638467621
  0.9924258726035049  0.3195511967223084  0.4947611305188886
  0.5019049316588351  0.5067607337789184  0.2200289750792592
  0.9768699113800849  0.0071242232178150  0.4750274731458717
  0.3232719224441354  0.6653570736730856  0.9910746726052864
  0.5226779429411010  0.1590184535581614  0.7924429429329933
  0.1399893719700955  0.4960576859213432  0.7159782479446832
  0.1468708591676418  0.1601612900882401  0.7374877260498565
  0.9986150046363136  0.9948296526068034  0.0113084723766406
 
  0.00000000E+00  0.00000000E+00  0.00000000E+00
  0.00000000E+00  0.00000000E+00  0.00000000E+00
  0.00000000E+00  0.00000000E+00  0.00000000E+00
  0.00000000E+00  0.00000000E+00  0.00000000E+00
  0.00000000E+00  0.00000000E+00  0.00000000E+00
  0.00000000E+00  0.00000000E+00  0.00000000E+00
  0.00000000E+00  0.00000000E+00  0.00000000E+00
  0.00000000E+00  0.00000000E+00  0.00000000E+00
  0.00000000E+00  0.00000000E+00  0.00000000E+00
  0.00000000E+00  0.00000000E+00  0.00000000E+00
  0.00000000E+00  0.00000000E+00  0.00000000E+00
  0.00000000E+00  0.00000000E+00  0.00000000E+00
  0.00000000E+00  0.00000000E+00  0.00000000E+00
  0.00000000E+00  0.00000000E+00  0.00000000E+00
  0.00000000E+00  0.00000000E+00  0.00000000E+00
  0.00000000E+00  0.00000000E+00  0.00000000E+00
  0.00000000E+00  0.00000000E+00  0.00000000E+00
  0.00000000E+00  0.00000000E+00  0.00000000E+00
  0.00000000E+00  0.00000000E+00  0.00000000E+00
  0.00000000E+00  0.00000000E+00  0.00000000E+00
  0.00000000E+00  0.00000000E+00  0.00000000E+00
  0.00000000E+00  0.00000000E+00  0.00000000E+00
  0.00000000E+00  0.00000000E+00  0.00000000E+00
  0.00000000E+00  0.00000000E+00  0.00000000E+00
  0.00000000E+00  0.00000000E+00  0.00000000E+00
  0.00000000E+00  0.00000000E+00  0.00000000E+00
  0.00000000E+00  0.00000000E+00  0.00000000E+00
  0.00000000E+00  0.00000000E+00  0.00000000E+00
  0.00000000E+00  0.00000000E+00  0.00000000E+00
  0.00000000E+00  0.00000000E+00  0.00000000E+00
  0.00000000E+00  0.00000000E+00  0.00000000E+00
  0.00000000E+00  0.00000000E+00  0.00000000E+00
  0.00000000E+00  0.00000000E+00  0.00000000E+00
  0.00000000E+00  0.00000000E+00  0.00000000E+00
  0.00000000E+00  0.00000000E+00  0.00000000E+00
  0.00000000E+00  0.00000000E+00  0.00000000E+00
