WMoRu-8 alloy: 23 W, 23 Mo, 8 Ru        
    1.000000000000000     
     9.4713023601435360    0.0012007985233687    0.0016267622198123
     0.0012218180428729    9.4843068965926847   -0.0008310326438447
     0.0016371328248428   -0.0007994975735918    9.4589304957906215
   W    Mo   Ru
    23    23     8
Direct
  0.1657296786282174  0.1672067540662070  0.1656484254584569
  0.1680141620103726  0.1662854044570992  0.4999159846750629
  0.0003806254216911  0.9989776932737797  0.6663063819102533
  0.1659545745134920  0.5009834321387601  0.1657540287682764
  0.0012921164806414  0.3323489068942607  0.3337953330976902
  0.1677584648614925  0.5002612305520415  0.5007213887458661
  0.0004169341124509  0.6680812991955776  0.9984766960815179
  0.0005217445466315  0.6660384944345381  0.3342271141890905
  0.3344034397280211  0.0001877849577312  0.9985969951065385
  0.4983294444130735  0.1658481498592295  0.1700305333411691
  0.3319144591562235  0.9983522118511345  0.3305518604877520
  0.3300937806303708  0.9973877674855416  0.6690646802453841
  0.3361796741482053  0.3317258972542021  0.9987507390176660
  0.3347676654222838  0.3344504437344682  0.3327077594493346
  0.3395668267974372  0.6647138801970982  0.3355355542549248
  0.6699646707162898  0.9989570160026489  0.3280040946788247
  0.8303408056658412  0.1691278302739860  0.4989675586592313
  0.6704813093573065  0.9995605663908549  0.6718331982969588
  0.8365648004020514  0.1679000477880095  0.8307777162631993
  0.8299482819492354  0.5018064929757671  0.8338654304439288
  0.6682717237435085  0.6683821903032978  0.0030634238245497
  0.8320191042745577  0.8323720446500502  0.4974738964992582
  0.6653131501849217  0.6654875639056570  0.6587370947294318
  0.9965865994209864  0.0007851694312606  0.9998270184598326
  0.0001315101212924  0.9975025645154645  0.3335576575169625
  0.1671714516572109  0.1674961750831230  0.8339966550891234
  0.9960514665583275  0.3330004953643382  0.9998182919613825
  0.9988368332670063  0.3338528729326526  0.6677230246875396
  0.1678381041563952  0.5011046726444448  0.8338858020985995
  0.1674491074267266  0.8332665420684435  0.1663054501203902
  0.1697671442714395  0.8339456216835330  0.4998679159827262
  0.0001066101222165  0.6667889965871439  0.6663429269322592
  0.1671925379651782  0.8325812860501003  0.8339093786941021
  0.4971286580419942  0.1679508430470733  0.8276765084401134
  0.5031945456508922  0.4989313652755101  0.1606816709900656
  0.5011426582977094  0.4901721522434102  0.5051968369928588
  0.3295985603350928  0.3309648672781620  0.6687103456485346
  0.3337587836000324  0.6674073631418693  0.0025960380280949
  0.5011469248574372  0.8342031709516888  0.1673882716649260
  0.3335999677208719  0.6623007823631397  0.6646512188173546
  0.5002715732860636  0.8321471154091284  0.8305090525868692
  0.8349873069269833  0.1725725132559859  0.1695995138891604
  0.6647825783134849  0.3352914572561403  0.3272569084123518
  0.6665525927755525  0.3289051870761668  0.6744238922599735
  0.8356407260919596  0.8313627032150990  0.1677519301305210
  0.8324185467673502  0.8301707117657813  0.8325125271575544
  0.5007168621833884  0.1594223693338890  0.5009247264052021
  0.5055193626165249  0.5119302683466813  0.8356602942157139
  0.4998815712513505  0.8555300801239198  0.5036971089318314
  0.6684224054513521  0.0091177050255169  0.9985792126238593
  0.6669828943578935  0.3145673741854509  0.9978487324925140
  0.8348787540438281  0.5105922627415964  0.1724681302599578
  0.8367410767627703  0.4992454173022907  0.4924984977633926
  0.6432748485363504  0.6604467916590906  0.3413285725218884
 
  0.00000000E+00  0.00000000E+00  0.00000000E+00
  0.00000000E+00  0.00000000E+00  0.00000000E+00
  0.00000000E+00  0.00000000E+00  0.00000000E+00
  0.00000000E+00  0.00000000E+00  0.00000000E+00
  0.00000000E+00  0.00000000E+00  0.00000000E+00
  0.00000000E+00  0.00000000E+00  0.00000000E+00
  0.00000000E+00  0.00000000E+00  0.00000000E+00
  0.00000000E+00  0.00000000E+00  0.00000000E+00
  0.00000000E+00  0.00000000E+00  0.00000000E+00
  0.00000000E+00  0.00000000E+00  0.00000000E+00
  0.00000000E+00  0.00000000E+00  0.00000000E+00
  0.00000000E+00  0.00000000E+00  0.00000000E+00
  0.00000000E+00  0.00000000E+00  0.00000000E+00
  0.00000000E+00  0.00000000E+00  0.00000000E+00
  0.00000000E+00  0.00000000E+00  0.00000000E+00
  0.00000000E+00  0.00000000E+00  0.00000000E+00
  0.00000000E+00  0.00000000E+00  0.00000000E+00
  0.00000000E+00  0.00000000E+00  0.00000000E+00
  0.00000000E+00  0.00000000E+00  0.00000000E+00
  0.00000000E+00  0.00000000E+00  0.00000000E+00
  0.00000000E+00  0.00000000E+00  0.00000000E+00
  0.00000000E+00  0.00000000E+00  0.00000000E+00
  0.00000000E+00  0.00000000E+00  0.00000000E+00
  0.00000000E+00  0.00000000E+00  0.00000000E+00
  0.00000000E+00  0.00000000E+00  0.00000000E+00
  0.00000000E+00  0.00000000E+00  0.00000000E+00
  0.00000000E+00  0.00000000E+00  0.00000000E+00
  0.00000000E+00  0.00000000E+00  0.00000000E+00
  0.00000000E+00  0.00000000E+00  0.00000000E+00
  0.00000000E+00  0.00000000E+00  0.00000000E+00
  0.00000000E+00  0.00000000E+00  0.00000000E+00
  0.00000000E+00  0.00000000E+00  0.00000000E+00
  0.00000000E+00  0.00000000E+00  0.00000000E+00
  0.00000000E+00  0.00000000E+00  0.00000000E+00
  0.00000000E+00  0.00000000E+00  0.00000000E+00
  0.00000000E+00  0.00000000E+00  0.00000000E+00
  0.00000000E+00  0.00000000E+00  0.00000000E+00
  0.00000000E+00  0.00000000E+00  0.00000000E+00
  0.00000000E+00  0.00000000E+00  0.00000000E+00
  0.00000000E+00  0.00000000E+00  0.00000000E+00
  0.00000000E+00  0.00000000E+00  0.00000000E+00
  0.00000000E+00  0.00000000E+00  0.00000000E+00
  0.00000000E+00  0.00000000E+00  0.00000000E+00
  0.00000000E+00  0.00000000E+00  0.00000000E+00
  0.00000000E+00  0.00000000E+00  0.00000000E+00
  0.00000000E+00  0.00000000E+00  0.00000000E+00
  0.00000000E+00  0.00000000E+00  0.00000000E+00
  0.00000000E+00  0.00000000E+00  0.00000000E+00
  0.00000000E+00  0.00000000E+00  0.00000000E+00
  0.00000000E+00  0.00000000E+00  0.00000000E+00
  0.00000000E+00  0.00000000E+00  0.00000000E+00
  0.00000000E+00  0.00000000E+00  0.00000000E+00
  0.00000000E+00  0.00000000E+00  0.00000000E+00
  0.00000000E+00  0.00000000E+00  0.00000000E+00
