title                                   
    1.000000000000000     
    10.1475748119372646    0.0186158118289885   -0.0117274874420730
     0.0186430389311080   10.1399160211813584    0.0135243787296703
    -0.0077937366945484    0.0090252057251291    6.7412619838955168
   Hf   Nb   Ta
    10     8    18
Direct
  0.3357600343842151  0.9946489012365660  0.0008292107330803
  0.9904695539139681  0.6561805722177780  0.9966897076696952
  0.8343378596890716  0.8337240840570530  0.2529835489515477
  0.1749961634048987  0.5014936612540311  0.7465838169037582
  0.9938209606920978  0.0177519237186274  0.5121152767280748
  0.1615574235135853  0.8302050593509520  0.2623646996132081
  0.5055284582246955  0.1718483162458497  0.2531483066088995
  0.5048180143797012  0.4955623283889565  0.2511713298595453
  0.5022012458746374  0.1750844783533978  0.7467092266108040
  0.1683182476370604  0.8255513216981356  0.7345136899661142
  0.8284978165719039  0.8341626517422682  0.7496179757344024
  0.5066770305086834  0.8291669775338448  0.2541614495028313
  0.3457857888492128  0.6657620108586997  0.4962653079786037
  0.0016646494668180  0.3340527151758508  0.0053115489423874
  0.1698531867967574  0.4987103866365032  0.2516398221651812
  0.6674219711004312  0.6670682623557340  0.5081299390384970
  0.6770568089286684  0.3376555350780279  0.9974734452477634
  0.8281517448357150  0.1677206829091915  0.2439286305253674
  0.9987725837386989  0.3316755630210793  0.4962260231190356
  0.4999305729456154  0.4987093960245303  0.7471196259725730
  0.6643572387787273  0.6700472761156817  0.9913460359918176
  0.6648693106199843  0.9909385151727292  0.9911717128264996
  0.8260331537934889  0.4979296691936668  0.2522570126067336
  0.8293807415313594  0.4941215711115277  0.7487112454099005
  0.3480319495757271  0.6729521722300262  0.0003222064760777
  0.8273142344748194  0.1725653808541381  0.7604141431378793
  0.3347110517190686  0.0037728463872355  0.4983912389469580
  0.5015102084830190  0.8307522409647632  0.7431830957555547
  0.3214341561860650  0.3328751961411882  0.0106663447523232
  0.6695720807132446  0.9969854341554694  0.5114436366415731
  0.3185927184542621  0.3295634530785634  0.4867217129011294
  0.9959952476479330  0.0114850787633287  0.9917798039902976
  0.1645583146770520  0.1685215744891480  0.2464384903422570
  0.6824541138290670  0.3349520491469278  0.5035327498714395
  0.1670038851622806  0.1767050915142363  0.7546882119259450
  0.9885614788974735  0.6490976228243071  0.5019497765522587
 
  0.00000000E+00  0.00000000E+00  0.00000000E+00
  0.00000000E+00  0.00000000E+00  0.00000000E+00
  0.00000000E+00  0.00000000E+00  0.00000000E+00
  0.00000000E+00  0.00000000E+00  0.00000000E+00
  0.00000000E+00  0.00000000E+00  0.00000000E+00
  0.00000000E+00  0.00000000E+00  0.00000000E+00
  0.00000000E+00  0.00000000E+00  0.00000000E+00
  0.00000000E+00  0.00000000E+00  0.00000000E+00
  0.00000000E+00  0.00000000E+00  0.00000000E+00
  0.00000000E+00  0.00000000E+00  0.00000000E+00
  0.00000000E+00  0.00000000E+00  0.00000000E+00
  0.00000000E+00  0.00000000E+00  0.00000000E+00
  0.00000000E+00  0.00000000E+00  0.00000000E+00
  0.00000000E+00  0.00000000E+00  0.00000000E+00
  0.00000000E+00  0.00000000E+00  0.00000000E+00
  0.00000000E+00  0.00000000E+00  0.00000000E+00
  0.00000000E+00  0.00000000E+00  0.00000000E+00
  0.00000000E+00  0.00000000E+00  0.00000000E+00
  0.00000000E+00  0.00000000E+00  0.00000000E+00
  0.00000000E+00  0.00000000E+00  0.00000000E+00
  0.00000000E+00  0.00000000E+00  0.00000000E+00
  0.00000000E+00  0.00000000E+00  0.00000000E+00
  0.00000000E+00  0.00000000E+00  0.00000000E+00
  0.00000000E+00  0.00000000E+00  0.00000000E+00
  0.00000000E+00  0.00000000E+00  0.00000000E+00
  0.00000000E+00  0.00000000E+00  0.00000000E+00
  0.00000000E+00  0.00000000E+00  0.00000000E+00
  0.00000000E+00  0.00000000E+00  0.00000000E+00
  0.00000000E+00  0.00000000E+00  0.00000000E+00
  0.00000000E+00  0.00000000E+00  0.00000000E+00
  0.00000000E+00  0.00000000E+00  0.00000000E+00
  0.00000000E+00  0.00000000E+00  0.00000000E+00
  0.00000000E+00  0.00000000E+00  0.00000000E+00
  0.00000000E+00  0.00000000E+00  0.00000000E+00
  0.00000000E+00  0.00000000E+00  0.00000000E+00
  0.00000000E+00  0.00000000E+00  0.00000000E+00
