title                                   
    1.000000000000000     
     9.4805383279837354    0.0640703361080872   -0.0227853621133924
     0.0640150801438184    9.5346904523867746   -0.0174017284548502
    -0.0152048474564457   -0.0115799161178220    6.3160686977677196
   Mo   Ta   Ti   V_
    14     4    11     7
Direct
  0.5004836121626610  0.1628824586551048  0.2463588799249621
  0.3346618989150159  0.0009136287664759  0.0029423823108701
  0.5039775033751539  0.1656679624342416  0.7522277981647534
  0.6614849413780135  0.3331488849247322  0.5035844468811206
  0.3393572882488272  0.6717692959104866  0.5009483682134146
  0.8335919339960469  0.8393591887766476  0.7556462839087246
  0.9960856373525928  0.6703503244129010  0.0042875890779470
  0.1669676371023527  0.1519847810859503  0.7470366720675301
  0.3366920620998854  0.6709048665228181  0.0018769420089271
  0.4948436789902075  0.8329652627962929  0.7546996347188326
  0.3308246582960592  0.0014659974280562  0.4948048976142019
  0.0014446043359655  0.9999831081900723  0.0032337814312413
  0.8313900124744222  0.8367391000736717  0.2439901059991243
  0.6631074734885658  0.6715943958446786  0.9986633845196238
  0.6628577123261437  0.9952089837380029  0.4973160398546668
  0.1726509995234409  0.5131404691171255  0.2505615464671962
  0.8278264543035121  0.4953892734413046  0.7570458138866414
  0.8348214259314091  0.1699203404756560  0.2448984922531352
  0.0176286608295513  0.3239112489032934  0.5017762810965181
  0.3361492583344088  0.3246574847738870  0.9985438515476091
  0.9853976362922552  0.6811079137482423  0.4977568716004015
  0.8343729681976697  0.1709044808967946  0.7503415091537917
  0.3327082485411523  0.3251943186275668  0.5031159876131852
  0.1660453366710612  0.8319790556678086  0.7529565349526024
  0.6686036830438553  0.6757467030877109  0.5016265149152730
  0.8263339455497700  0.4938145392215674  0.2448504362254624
  0.5020182589502866  0.5038552966821896  0.2491448776854597
  0.1755397675201067  0.5172705703918510  0.7544332188756826
  0.0233902262845689  0.3279720202685539  0.9977835350130420
  0.6609278282876758  0.9997217351466361  0.9995737532920970
  0.6506599611354389  0.3269251056312754  0.9952996128556961
  0.5036760801107718  0.5037606728140389  0.7560038713560218
  0.4900399113433878  0.8288520268566941  0.2438416888987192
  0.1667789222239549  0.8369352334510580  0.2480383787502589
  0.0003240591916409  0.9961338534039825  0.4944029219962900
  0.1663357131921757  0.1478694178326450  0.2503870948689766
 
  0.00000000E+00  0.00000000E+00  0.00000000E+00
  0.00000000E+00  0.00000000E+00  0.00000000E+00
  0.00000000E+00  0.00000000E+00  0.00000000E+00
  0.00000000E+00  0.00000000E+00  0.00000000E+00
  0.00000000E+00  0.00000000E+00  0.00000000E+00
  0.00000000E+00  0.00000000E+00  0.00000000E+00
  0.00000000E+00  0.00000000E+00  0.00000000E+00
  0.00000000E+00  0.00000000E+00  0.00000000E+00
  0.00000000E+00  0.00000000E+00  0.00000000E+00
  0.00000000E+00  0.00000000E+00  0.00000000E+00
  0.00000000E+00  0.00000000E+00  0.00000000E+00
  0.00000000E+00  0.00000000E+00  0.00000000E+00
  0.00000000E+00  0.00000000E+00  0.00000000E+00
  0.00000000E+00  0.00000000E+00  0.00000000E+00
  0.00000000E+00  0.00000000E+00  0.00000000E+00
  0.00000000E+00  0.00000000E+00  0.00000000E+00
  0.00000000E+00  0.00000000E+00  0.00000000E+00
  0.00000000E+00  0.00000000E+00  0.00000000E+00
  0.00000000E+00  0.00000000E+00  0.00000000E+00
  0.00000000E+00  0.00000000E+00  0.00000000E+00
  0.00000000E+00  0.00000000E+00  0.00000000E+00
  0.00000000E+00  0.00000000E+00  0.00000000E+00
  0.00000000E+00  0.00000000E+00  0.00000000E+00
  0.00000000E+00  0.00000000E+00  0.00000000E+00
  0.00000000E+00  0.00000000E+00  0.00000000E+00
  0.00000000E+00  0.00000000E+00  0.00000000E+00
  0.00000000E+00  0.00000000E+00  0.00000000E+00
  0.00000000E+00  0.00000000E+00  0.00000000E+00
  0.00000000E+00  0.00000000E+00  0.00000000E+00
  0.00000000E+00  0.00000000E+00  0.00000000E+00
  0.00000000E+00  0.00000000E+00  0.00000000E+00
  0.00000000E+00  0.00000000E+00  0.00000000E+00
  0.00000000E+00  0.00000000E+00  0.00000000E+00
  0.00000000E+00  0.00000000E+00  0.00000000E+00
  0.00000000E+00  0.00000000E+00  0.00000000E+00
  0.00000000E+00  0.00000000E+00  0.00000000E+00
