title                                   
    1.000000000000000     
     9.9589679077050519   -0.0266180701342999   -0.1219011269196622
    -0.0262455415929258    9.9559351861922796   -0.0256449697061661
    -0.0814464016066104   -0.0168898589345176    6.7673066974390776
   Hf   Nb   Ta   Ti
     7     4    11    14
Direct
  0.9920378162957846  0.9942529683434742  0.0113297184881205
  0.3498862291162084  0.6661294316083541  0.4974774860295881
  0.6478245710587061  0.0039847368584489  0.5188371599561350
  0.6753213808854284  0.6699907119514563  0.9797353577604966
  0.8158118527115619  0.1788897368781903  0.2457763662274743
  0.1720373122893264  0.8405283590358366  0.7406683608394573
  0.9934726716710500  0.6661378017085795  0.0055265294124780
  0.1684127799918471  0.1748442874915810  0.2518045007567125
  0.3305521069116892  0.3330555768615966  0.0062247731373475
  0.8409178623954716  0.4962777201972415  0.7186456933972920
  0.1642625716270203  0.8309712668883193  0.2767617304347212
  0.4870371548389798  0.4910882166244832  0.7665251187768902
  0.3335435706660448  0.6649021936955748  0.0168199889358860
  0.8438816554411872  0.1675199138823515  0.7390369694859160
  0.8202435474296905  0.4891291414787347  0.2591700605152099
  0.9946335644335775  0.3378912831423477  0.9890688638470380
  0.5114885169165859  0.4929139527422350  0.2403745348925170
  0.1744404991964572  0.4960705093646709  0.7559237660557940
  0.4806883118514520  0.8488606013404336  0.7881959343396261
  0.1728885654449854  0.4925875198566558  0.2425854467281781
  0.3386513744427759  0.3278243181915315  0.5015194230942157
  0.0052420400885254  0.0135933693719892  0.4845202086231453
  0.6761083729806003  0.3420733672455256  0.9586348651234644
  0.4821978005987262  0.1615277401925255  0.7873127382186809
  0.5051918165925855  0.1747165719750043  0.2279016956785114
  0.6824020967163307  0.9893991918993450  0.9746136992222887
  0.0040699343525006  0.6497201085316888  0.4802376481769031
  0.1675839987846430  0.1665657183724321  0.7534333957519266
  0.8259155456276090  0.8337745409379167  0.2817480895757356
  0.5128217359506664  0.8358533561662043  0.2280322938801902
  0.6505749664427256  0.3280463417539252  0.5265618952459832
  0.8488587375637167  0.8359543191059302  0.7022461558666961
  0.3203311559358824  0.9977207240924741  0.0506082476874781
  0.3407856332994683  0.0083568748513159  0.4836605334562449
  0.0116113155021225  0.3353300452306840  0.4961969488208382
  0.6582709339480672  0.6635174821309278  0.5122838015608053
 
  0.00000000E+00  0.00000000E+00  0.00000000E+00
  0.00000000E+00  0.00000000E+00  0.00000000E+00
  0.00000000E+00  0.00000000E+00  0.00000000E+00
  0.00000000E+00  0.00000000E+00  0.00000000E+00
  0.00000000E+00  0.00000000E+00  0.00000000E+00
  0.00000000E+00  0.00000000E+00  0.00000000E+00
  0.00000000E+00  0.00000000E+00  0.00000000E+00
  0.00000000E+00  0.00000000E+00  0.00000000E+00
  0.00000000E+00  0.00000000E+00  0.00000000E+00
  0.00000000E+00  0.00000000E+00  0.00000000E+00
  0.00000000E+00  0.00000000E+00  0.00000000E+00
  0.00000000E+00  0.00000000E+00  0.00000000E+00
  0.00000000E+00  0.00000000E+00  0.00000000E+00
  0.00000000E+00  0.00000000E+00  0.00000000E+00
  0.00000000E+00  0.00000000E+00  0.00000000E+00
  0.00000000E+00  0.00000000E+00  0.00000000E+00
  0.00000000E+00  0.00000000E+00  0.00000000E+00
  0.00000000E+00  0.00000000E+00  0.00000000E+00
  0.00000000E+00  0.00000000E+00  0.00000000E+00
  0.00000000E+00  0.00000000E+00  0.00000000E+00
  0.00000000E+00  0.00000000E+00  0.00000000E+00
  0.00000000E+00  0.00000000E+00  0.00000000E+00
  0.00000000E+00  0.00000000E+00  0.00000000E+00
  0.00000000E+00  0.00000000E+00  0.00000000E+00
  0.00000000E+00  0.00000000E+00  0.00000000E+00
  0.00000000E+00  0.00000000E+00  0.00000000E+00
  0.00000000E+00  0.00000000E+00  0.00000000E+00
  0.00000000E+00  0.00000000E+00  0.00000000E+00
  0.00000000E+00  0.00000000E+00  0.00000000E+00
  0.00000000E+00  0.00000000E+00  0.00000000E+00
  0.00000000E+00  0.00000000E+00  0.00000000E+00
  0.00000000E+00  0.00000000E+00  0.00000000E+00
  0.00000000E+00  0.00000000E+00  0.00000000E+00
  0.00000000E+00  0.00000000E+00  0.00000000E+00
  0.00000000E+00  0.00000000E+00  0.00000000E+00
  0.00000000E+00  0.00000000E+00  0.00000000E+00
