title                                   
    1.000000000000000     
     9.7366892938530150    0.0101491811660748    0.0103887629468893
     0.0101462582718199    9.7140082361336084    0.0552356837896237
     0.0068767495293266    0.0367157201351013    6.5405290361038251
   Mo   Nb   Ta   Ti
     9     9     9     9
Direct
  0.3331044149089877  0.3344050412049526  0.5029965520401589
  0.9967060430863270  0.0015108966697994  0.9971761072698229
  0.3334185818259598  0.0035168882514753  0.0023484856883726
  0.8343522101408283  0.8372077042238715  0.7464469597341292
  0.1679890083833868  0.5032341393739586  0.2505209003284676
  0.8334103012000682  0.1612243407825318  0.2521970890723608
  0.8373548721864950  0.4968942882924026  0.7480797696610750
  0.6683209697120560  0.9999307158354753  0.0016879186306369
  0.3351176509807772  0.6625600102356373  0.9971653557064499
  0.4989074742357360  0.1675328789698582  0.2588906478098068
  0.1666641409161826  0.1639422364843668  0.7567424942862431
  0.4972043396685848  0.5041997582714757  0.2532440662634770
  0.9926451038823174  0.6602671378973213  0.9859006003525437
  0.9952571077080918  0.3343148333150978  0.5029228579080822
  0.4904681734118768  0.4990924198160798  0.7502968830252783
  0.8343384505758706  0.5052885617875447  0.2520725518437885
  0.1672723429661715  0.1643863424095073  0.2556994240106647
  0.5010580077364679  0.8372552280987620  0.2316607349895321
  0.0022025965899317  0.6684947169803266  0.4942066829117451
  0.6709610474233969  0.9998186156718489  0.5006403999261479
  0.6701314182958455  0.6668843391915544  0.5052127237248882
  0.9962784640360169  0.9951848527192197  0.4988223294501637
  0.3302226263612127  0.3346206134438816  0.0123997830443798
  0.3328433528970152  0.9959367238671319  0.4975733724742923
  0.3270527577627007  0.6720336430976275  0.4893778431791489
  0.6702999727072410  0.3374756182870939  0.0117957047863442
  0.9999573457915432  0.3352548992692022  0.0102156855475712
  0.4934183356337130  0.8380944249931801  0.7584968956493938
  0.8326940026236116  0.1583612746436458  0.7686696905509578
  0.6736072410425962  0.6623360485971261  0.9766036513051262
  0.1720848126040764  0.8316760344457492  0.7651371758447709
  0.6722148184053083  0.3342866592897664  0.5074235570319559
  0.1651758467985971  0.8381519613805679  0.2145309283461216
  0.8322335637974234  0.8393173142735435  0.2308308098469212
  0.1733589655780676  0.4978213529404272  0.7455695396506101
  0.5016736381255242  0.1574874849879961  0.7664438281085779
 
  0.00000000E+00  0.00000000E+00  0.00000000E+00
  0.00000000E+00  0.00000000E+00  0.00000000E+00
  0.00000000E+00  0.00000000E+00  0.00000000E+00
  0.00000000E+00  0.00000000E+00  0.00000000E+00
  0.00000000E+00  0.00000000E+00  0.00000000E+00
  0.00000000E+00  0.00000000E+00  0.00000000E+00
  0.00000000E+00  0.00000000E+00  0.00000000E+00
  0.00000000E+00  0.00000000E+00  0.00000000E+00
  0.00000000E+00  0.00000000E+00  0.00000000E+00
  0.00000000E+00  0.00000000E+00  0.00000000E+00
  0.00000000E+00  0.00000000E+00  0.00000000E+00
  0.00000000E+00  0.00000000E+00  0.00000000E+00
  0.00000000E+00  0.00000000E+00  0.00000000E+00
  0.00000000E+00  0.00000000E+00  0.00000000E+00
  0.00000000E+00  0.00000000E+00  0.00000000E+00
  0.00000000E+00  0.00000000E+00  0.00000000E+00
  0.00000000E+00  0.00000000E+00  0.00000000E+00
  0.00000000E+00  0.00000000E+00  0.00000000E+00
  0.00000000E+00  0.00000000E+00  0.00000000E+00
  0.00000000E+00  0.00000000E+00  0.00000000E+00
  0.00000000E+00  0.00000000E+00  0.00000000E+00
  0.00000000E+00  0.00000000E+00  0.00000000E+00
  0.00000000E+00  0.00000000E+00  0.00000000E+00
  0.00000000E+00  0.00000000E+00  0.00000000E+00
  0.00000000E+00  0.00000000E+00  0.00000000E+00
  0.00000000E+00  0.00000000E+00  0.00000000E+00
  0.00000000E+00  0.00000000E+00  0.00000000E+00
  0.00000000E+00  0.00000000E+00  0.00000000E+00
  0.00000000E+00  0.00000000E+00  0.00000000E+00
  0.00000000E+00  0.00000000E+00  0.00000000E+00
  0.00000000E+00  0.00000000E+00  0.00000000E+00
  0.00000000E+00  0.00000000E+00  0.00000000E+00
  0.00000000E+00  0.00000000E+00  0.00000000E+00
  0.00000000E+00  0.00000000E+00  0.00000000E+00
  0.00000000E+00  0.00000000E+00  0.00000000E+00
  0.00000000E+00  0.00000000E+00  0.00000000E+00
