WMo-10 alloy: 44 W, 10 Mo               
    1.000000000000000     
     9.5474689934261541    0.0001350856312813    0.0007643233538522
     0.0001350807726080    9.5457181586005024    0.0000537618342205
     0.0007642492012591    0.0000538068313087    9.5475747752128530
   W    Mo
    44    10
Direct
  0.0000368947780061  0.9998059300301065  0.9998617954678792
  0.1669222332081333  0.1664431488896483  0.1668471089454471
  0.9998568711584426  0.9998374971119546  0.3334332837943137
  0.1667880765209517  0.1662441850216183  0.4998880332734146
  0.1666093354258393  0.1665385666238848  0.8332597257675829
  0.9998686225829161  0.3332984262092893  0.9998518563150967
  0.1667770772284101  0.5000159536026629  0.1666307960942817
  0.0001703239213597  0.3334029139070651  0.3336004445374954
  0.0001206737845791  0.3334007979322422  0.6665481505788691
  0.1667876383558706  0.5003303251519000  0.8330881484636592
  0.9999742580270166  0.6669029498749737  0.9998855035029095
  0.1669186349852225  0.8335597907023313  0.1669165158584534
  0.0001666774475240  0.6667692604791498  0.3335441581391194
  0.1667901361523008  0.8333569093089324  0.5001995307802218
  0.1666097765797403  0.8331184911177871  0.8328674005196248
  0.3336809372691434  0.9997870032615381  0.0000691533905410
  0.4999688384259855  0.1663399712097018  0.4999641238427941
  0.3333597127443184  0.9998815057961465  0.6667876777830344
  0.5002929865174224  0.1662791220931865  0.8333197944521089
  0.3336111523029999  0.3331292462145470  0.0000421701963589
  0.5001349787145628  0.5002194862493781  0.1665795414891491
  0.3333909561933694  0.3333633145047727  0.3334482691295193
  0.4998752902751278  0.5001739691431197  0.5000605928499411
  0.3332256258916431  0.3333287918776975  0.6664950906472953
  0.4998745045817543  0.5003149050340028  0.8333634830062309
  0.3335077360588272  0.6670847501617629  0.0000800810548185
  0.3333917876913333  0.6668178319210298  0.3333614127913336
  0.4997549462473643  0.8335034799287868  0.5000746837011434
  0.5003138631518809  0.8333947966657149  0.8333892492992874
  0.8331714321355079  0.1664401159696425  0.1665242225694925
  0.6663883854110750  0.9998220997875436  0.3331240993778266
  0.8332421942707100  0.1663734136055552  0.5002725020003069
  0.8330827997241101  0.1661316320804005  0.8332020748159650
  0.6664959884143542  0.3331545076963778  0.9999993352661534
  0.8330958354312941  0.5002151992561465  0.1666370563775033
  0.6664539474464917  0.3330501177935403  0.3332140543124567
  0.8333669389867850  0.5001749588790858  0.5000531618602153
  0.6666512817830110  0.3333580752886149  0.6667973942943135
  0.8333497425318583  0.5003239176818468  0.8333191565538129
  0.8329610514238794  0.8333202116795277  0.1663595780482581
  0.6664485859515352  0.6671288938452520  0.3333536412351208
  0.8334766797768225  0.8334600218729165  0.5003778904896024
  0.6666604763306623  0.6668532286930642  0.6667036225552465
  0.8330727982422488  0.8335606957945529  0.8332597765090313
  0.9999874918328686  0.9998222293501300  0.6667007234483151
  0.1667439594131324  0.5002979637338640  0.5002174822577601
  0.9999981462971022  0.6668235152537889  0.6666372558779372
  0.4999008217325382  0.1663833514825939  0.1667006356343492
  0.3336329245697769  0.9998274983496529  0.3332790215262307
  0.5000649769594645  0.8334462650914745  0.1665922811974525
  0.3333349059210846  0.6668450872896940  0.6665767545556918
  0.6664344350834313  0.9998496897478901  0.0001081754879948
  0.6666580980962138  0.9997666478221703  0.6666539034764298
  0.6665455560119966  0.6669273419297141  0.9998784246006025
 
  0.00000000E+00  0.00000000E+00  0.00000000E+00
  0.00000000E+00  0.00000000E+00  0.00000000E+00
  0.00000000E+00  0.00000000E+00  0.00000000E+00
  0.00000000E+00  0.00000000E+00  0.00000000E+00
  0.00000000E+00  0.00000000E+00  0.00000000E+00
  0.00000000E+00  0.00000000E+00  0.00000000E+00
  0.00000000E+00  0.00000000E+00  0.00000000E+00
  0.00000000E+00  0.00000000E+00  0.00000000E+00
  0.00000000E+00  0.00000000E+00  0.00000000E+00
  0.00000000E+00  0.00000000E+00  0.00000000E+00
  0.00000000E+00  0.00000000E+00  0.00000000E+00
  0.00000000E+00  0.00000000E+00  0.00000000E+00
  0.00000000E+00  0.00000000E+00  0.00000000E+00
  0.00000000E+00  0.00000000E+00  0.00000000E+00
  0.00000000E+00  0.00000000E+00  0.00000000E+00
  0.00000000E+00  0.00000000E+00  0.00000000E+00
  0.00000000E+00  0.00000000E+00  0.00000000E+00
  0.00000000E+00  0.00000000E+00  0.00000000E+00
  0.00000000E+00  0.00000000E+00  0.00000000E+00
  0.00000000E+00  0.00000000E+00  0.00000000E+00
  0.00000000E+00  0.00000000E+00  0.00000000E+00
  0.00000000E+00  0.00000000E+00  0.00000000E+00
  0.00000000E+00  0.00000000E+00  0.00000000E+00
  0.00000000E+00  0.00000000E+00  0.00000000E+00
  0.00000000E+00  0.00000000E+00  0.00000000E+00
  0.00000000E+00  0.00000000E+00  0.00000000E+00
  0.00000000E+00  0.00000000E+00  0.00000000E+00
  0.00000000E+00  0.00000000E+00  0.00000000E+00
  0.00000000E+00  0.00000000E+00  0.00000000E+00
  0.00000000E+00  0.00000000E+00  0.00000000E+00
  0.00000000E+00  0.00000000E+00  0.00000000E+00
  0.00000000E+00  0.00000000E+00  0.00000000E+00
  0.00000000E+00  0.00000000E+00  0.00000000E+00
  0.00000000E+00  0.00000000E+00  0.00000000E+00
  0.00000000E+00  0.00000000E+00  0.00000000E+00
  0.00000000E+00  0.00000000E+00  0.00000000E+00
  0.00000000E+00  0.00000000E+00  0.00000000E+00
  0.00000000E+00  0.00000000E+00  0.00000000E+00
  0.00000000E+00  0.00000000E+00  0.00000000E+00
  0.00000000E+00  0.00000000E+00  0.00000000E+00
  0.00000000E+00  0.00000000E+00  0.00000000E+00
  0.00000000E+00  0.00000000E+00  0.00000000E+00
  0.00000000E+00  0.00000000E+00  0.00000000E+00
  0.00000000E+00  0.00000000E+00  0.00000000E+00
  0.00000000E+00  0.00000000E+00  0.00000000E+00
  0.00000000E+00  0.00000000E+00  0.00000000E+00
  0.00000000E+00  0.00000000E+00  0.00000000E+00
  0.00000000E+00  0.00000000E+00  0.00000000E+00
  0.00000000E+00  0.00000000E+00  0.00000000E+00
  0.00000000E+00  0.00000000E+00  0.00000000E+00
  0.00000000E+00  0.00000000E+00  0.00000000E+00
  0.00000000E+00  0.00000000E+00  0.00000000E+00
  0.00000000E+00  0.00000000E+00  0.00000000E+00
  0.00000000E+00  0.00000000E+00  0.00000000E+00
