title                                   
    1.000000000000000     
    10.0835573848517921    0.0226139105837991    0.0163529244009163
     0.0226521723838111   10.1238710165656798   -0.0310586580111708
     0.0107966169599473   -0.0204376777573155    6.8777799974126337
   Hf   Nb   Ti   Zr
    10    19     4     3
Direct
  0.1518472567815934  0.4971482786473587  0.7693166330720871
  0.8296335813768820  0.5055336476289085  0.2214566358517089
  0.9995262736811767  0.3307031872758941  0.4877581229269126
  0.0017269396625252  0.6731821302225498  0.4939670943906904
  0.3275099454225128  0.6633967871768007  0.5010766846133734
  0.4980782963756241  0.8390086132899128  0.2644244844164163
  0.8465059895212832  0.1706287159034829  0.7793250918755419
  0.6593802405396332  0.0005133299778635  0.9867801015249427
  0.9998649980123560  0.9976866546575849  0.4928013627653485
  0.3454424769302165  0.3315216930458931  0.9956665746488369
  0.5066906326794012  0.5017952712706446  0.7378702420912191
  0.8339685635645324  0.1693626619473036  0.2279526115338086
  0.8361111239610750  0.5046872044507751  0.7659958292908868
  0.1571258389639283  0.1736392978749706  0.7602455396669541
  0.8209932989597988  0.8250534289016116  0.2445840395006300
  0.6675818591966944  0.6655228125262056  0.5030290473374777
  0.8305163930877768  0.8314009671694578  0.7517306596720843
  0.1544717711022443  0.8283020939992483  0.7713350087982747
  0.5082866626917948  0.8305980882872035  0.7298061031955285
  0.6627412077906527  0.6707278873710791  0.9829899268498110
  0.9987786311267612  0.6845603074437179  0.0059501826519366
  0.5142973287372499  0.5056198303957444  0.2490457334090053
  0.1814462990905668  0.1593287124660776  0.2545138004070964
  0.3300590333340239  0.3376855441478099  0.5017659165423112
  0.1660085734829408  0.4911788258660650  0.2438036256444747
  0.1843499270239164  0.8536556523593575  0.2405228405168174
  0.4982967212475629  0.1640745512023045  0.7179123921842177
  0.0127582601952909  0.3239864874893073  0.0252632249479419
  0.6792941520399154  0.9952803880057530  0.5071309250717420
  0.0046698410903403  0.9949592943381944  0.0221162490325852
  0.6499669361634375  0.3321003552228277  0.9877465972832979
  0.3161547314517108  0.9941587636034086  0.5436092608719747
  0.3287103863780843  0.0028896817515545  0.9624444191700547
  0.6735455675133153  0.3339050741181708  0.4997671533407200
  0.3377301024090897  0.6647573749870546  0.0004203994559546
  0.4859301584140923  0.1514464049778894  0.2698754854473293
 
  0.00000000E+00  0.00000000E+00  0.00000000E+00
  0.00000000E+00  0.00000000E+00  0.00000000E+00
  0.00000000E+00  0.00000000E+00  0.00000000E+00
  0.00000000E+00  0.00000000E+00  0.00000000E+00
  0.00000000E+00  0.00000000E+00  0.00000000E+00
  0.00000000E+00  0.00000000E+00  0.00000000E+00
  0.00000000E+00  0.00000000E+00  0.00000000E+00
  0.00000000E+00  0.00000000E+00  0.00000000E+00
  0.00000000E+00  0.00000000E+00  0.00000000E+00
  0.00000000E+00  0.00000000E+00  0.00000000E+00
  0.00000000E+00  0.00000000E+00  0.00000000E+00
  0.00000000E+00  0.00000000E+00  0.00000000E+00
  0.00000000E+00  0.00000000E+00  0.00000000E+00
  0.00000000E+00  0.00000000E+00  0.00000000E+00
  0.00000000E+00  0.00000000E+00  0.00000000E+00
  0.00000000E+00  0.00000000E+00  0.00000000E+00
  0.00000000E+00  0.00000000E+00  0.00000000E+00
  0.00000000E+00  0.00000000E+00  0.00000000E+00
  0.00000000E+00  0.00000000E+00  0.00000000E+00
  0.00000000E+00  0.00000000E+00  0.00000000E+00
  0.00000000E+00  0.00000000E+00  0.00000000E+00
  0.00000000E+00  0.00000000E+00  0.00000000E+00
  0.00000000E+00  0.00000000E+00  0.00000000E+00
  0.00000000E+00  0.00000000E+00  0.00000000E+00
  0.00000000E+00  0.00000000E+00  0.00000000E+00
  0.00000000E+00  0.00000000E+00  0.00000000E+00
  0.00000000E+00  0.00000000E+00  0.00000000E+00
  0.00000000E+00  0.00000000E+00  0.00000000E+00
  0.00000000E+00  0.00000000E+00  0.00000000E+00
  0.00000000E+00  0.00000000E+00  0.00000000E+00
  0.00000000E+00  0.00000000E+00  0.00000000E+00
  0.00000000E+00  0.00000000E+00  0.00000000E+00
  0.00000000E+00  0.00000000E+00  0.00000000E+00
  0.00000000E+00  0.00000000E+00  0.00000000E+00
  0.00000000E+00  0.00000000E+00  0.00000000E+00
  0.00000000E+00  0.00000000E+00  0.00000000E+00
