WIr-2 alloy: 52 W, 2 Ir                 
    1.000000000000000     
     9.5493157464050125   -0.0000000000000000    0.0013927360891581
     0.0000000000000000    9.5419690590082986    0.0000000000000000
     0.0013927360891581   -0.0000000000000000    9.5493157464050125
   W    Ir
    52     2
Direct
  0.9981213208579405  0.9981718970064648  0.0005961622442001
  0.1665263358611000  0.1666669999999968  0.1645049084690484
  0.9998124802461987  0.9995622957180430  0.3335565395430535
  0.1659155215968866  0.1666669999999968  0.5028134871595284
  0.9978748512109448  0.9943101534790841  0.6645418512109416
  0.9981213208579405  0.3351611029935384  0.0005961622442001
  0.1668545197537981  0.4995622957180430  0.1664434604569465
  0.9998124802461987  0.3337707042819602  0.3335565395430535
  0.1685456791420563  0.4981718970064648  0.4994038377557999
  0.9978748512109448  0.3390228465209191  0.6645418512109416
  0.1687921487890520  0.4943101534790841  0.8354581487890584
  0.0007514784031102  0.6666669999999968  0.9971865128404716
  0.1668545197537981  0.8337707042819602  0.1664434604569465
  0.0001406641388968  0.6666669999999968  0.3354950915309516
  0.1685456791420563  0.8351611029935384  0.4994038377557999
  0.1687921487890520  0.8390228465209191  0.8354581487890584
  0.3346366398692382  0.9994329554261725  0.0013036398692350
  0.4997490287279760  0.1666669999999968  0.1664160287279728
  0.3335020837309131  0.0003585649358442  0.3328082673186898
  0.4995002773060691  0.1666669999999968  0.5004341253347064
  0.3339291622442033  0.9981718970064648  0.6647883208579373
  0.4978379084690516  0.1666669999999968  0.8331923358611064
  0.3346366398692382  0.3339000445738307  0.0013036398692350
  0.5003594340306776  0.5006039844112564  0.1670264340306744
  0.3335020837309131  0.3329744350641590  0.3328082673186898
  0.5005247326813134  0.5003585649358442  0.4998309162690902
  0.3339291622442033  0.3351611029935384  0.6647883208579373
  0.4997764604569497  0.4995622957180430  0.8335205197538045
  0.3328237954052611  0.6666669999999968  0.9994907954052579
  0.5003594340306776  0.8327290155887468  0.1670264340306744
  0.3328988746652968  0.6666669999999968  0.3338327226939342
  0.5005247326813134  0.8329744350641590  0.4998309162690902
  0.3305195128404748  0.6666669999999968  0.6674184784031070
  0.4997764604569497  0.8337707042819602  0.8335205197538045
  0.6661422673186834  0.0003585649358442  0.0001690837309098
  0.8337671253347096  0.1666669999999968  0.1661672773060658
  0.6663075659693192  0.0006039844112564  0.3329735659693256
  0.8338422045947453  0.1666669999999968  0.5005092045947492
  0.6668905395430471  0.9995622957180430  0.6664794802461955
  0.8361464871595317  0.1666669999999968  0.8325815215968930
  0.6661422673186834  0.3329744350641590  0.0001690837309098
  0.8331639162690934  0.5003585649358442  0.1671917326813102
  0.6663075659693192  0.3327290155887468  0.3329735659693256
  0.8320293601307682  0.4994329554261725  0.4986963601307650
  0.6668905395430471  0.3337707042819602  0.6664794802461955
  0.8327368377558031  0.4981718970064648  0.8352116791420627
  0.6671667226939277  0.6666669999999968  0.9995658746652936
  0.8331639162690934  0.8329744350641590  0.1671917326813102
  0.6669179712720208  0.6666669999999968  0.3335839712720272
  0.8320293601307682  0.8339000445738307  0.4986963601307650
  0.6688290915309452  0.6666669999999968  0.6668076641388936
  0.8327368377558031  0.8351611029935384  0.8352116791420627
  0.1655291257794786  0.1666669999999968  0.8321951257794851
  0.0011378742205181  0.6666669999999968  0.6678048742205149
 
  0.00000000E+00  0.00000000E+00  0.00000000E+00
  0.00000000E+00  0.00000000E+00  0.00000000E+00
  0.00000000E+00  0.00000000E+00  0.00000000E+00
  0.00000000E+00  0.00000000E+00  0.00000000E+00
  0.00000000E+00  0.00000000E+00  0.00000000E+00
  0.00000000E+00  0.00000000E+00  0.00000000E+00
  0.00000000E+00  0.00000000E+00  0.00000000E+00
  0.00000000E+00  0.00000000E+00  0.00000000E+00
  0.00000000E+00  0.00000000E+00  0.00000000E+00
  0.00000000E+00  0.00000000E+00  0.00000000E+00
  0.00000000E+00  0.00000000E+00  0.00000000E+00
  0.00000000E+00  0.00000000E+00  0.00000000E+00
  0.00000000E+00  0.00000000E+00  0.00000000E+00
  0.00000000E+00  0.00000000E+00  0.00000000E+00
  0.00000000E+00  0.00000000E+00  0.00000000E+00
  0.00000000E+00  0.00000000E+00  0.00000000E+00
  0.00000000E+00  0.00000000E+00  0.00000000E+00
  0.00000000E+00  0.00000000E+00  0.00000000E+00
  0.00000000E+00  0.00000000E+00  0.00000000E+00
  0.00000000E+00  0.00000000E+00  0.00000000E+00
  0.00000000E+00  0.00000000E+00  0.00000000E+00
  0.00000000E+00  0.00000000E+00  0.00000000E+00
  0.00000000E+00  0.00000000E+00  0.00000000E+00
  0.00000000E+00  0.00000000E+00  0.00000000E+00
  0.00000000E+00  0.00000000E+00  0.00000000E+00
  0.00000000E+00  0.00000000E+00  0.00000000E+00
  0.00000000E+00  0.00000000E+00  0.00000000E+00
  0.00000000E+00  0.00000000E+00  0.00000000E+00
  0.00000000E+00  0.00000000E+00  0.00000000E+00
  0.00000000E+00  0.00000000E+00  0.00000000E+00
  0.00000000E+00  0.00000000E+00  0.00000000E+00
  0.00000000E+00  0.00000000E+00  0.00000000E+00
  0.00000000E+00  0.00000000E+00  0.00000000E+00
  0.00000000E+00  0.00000000E+00  0.00000000E+00
  0.00000000E+00  0.00000000E+00  0.00000000E+00
  0.00000000E+00  0.00000000E+00  0.00000000E+00
  0.00000000E+00  0.00000000E+00  0.00000000E+00
  0.00000000E+00  0.00000000E+00  0.00000000E+00
  0.00000000E+00  0.00000000E+00  0.00000000E+00
  0.00000000E+00  0.00000000E+00  0.00000000E+00
  0.00000000E+00  0.00000000E+00  0.00000000E+00
  0.00000000E+00  0.00000000E+00  0.00000000E+00
  0.00000000E+00  0.00000000E+00  0.00000000E+00
  0.00000000E+00  0.00000000E+00  0.00000000E+00
  0.00000000E+00  0.00000000E+00  0.00000000E+00
  0.00000000E+00  0.00000000E+00  0.00000000E+00
  0.00000000E+00  0.00000000E+00  0.00000000E+00
  0.00000000E+00  0.00000000E+00  0.00000000E+00
  0.00000000E+00  0.00000000E+00  0.00000000E+00
  0.00000000E+00  0.00000000E+00  0.00000000E+00
  0.00000000E+00  0.00000000E+00  0.00000000E+00
  0.00000000E+00  0.00000000E+00  0.00000000E+00
  0.00000000E+00  0.00000000E+00  0.00000000E+00
  0.00000000E+00  0.00000000E+00  0.00000000E+00
