title                                   
    1.000000000000000     
     9.2179668838070281   -0.0825315269746340   -0.0630630644390567
    -0.0824436703301656    9.2440110573533847    0.0289515952920190
    -0.0419941851474244    0.0193868122350285    6.1640309380678788
   Cr   Nb   Ta   Ti
    19     4    10     3
Direct
  0.6644788613393828  0.3295432050041214  0.0041470808756898
  0.8338142001430597  0.8321959584370830  0.2543705220187036
  0.3370101606843150  0.6686339071306335  0.9862083449766388
  0.0043103269849425  0.6723871815569780  0.9969116618177409
  0.0026664035908723  0.0128582899529732  0.9962586519430516
  0.8406176555027116  0.1688034851618525  0.7691403065594571
  0.1714285886034759  0.8345788775079583  0.7468873384818124
  0.9984024504556857  0.3189580007148933  0.9984516024109098
  0.1623055290521833  0.1612780389306607  0.7511164844999740
  0.5020586703272585  0.5033288061551175  0.2531752609567519
  0.1666558404308631  0.5043837592861209  0.7539568012697373
  0.1582491495795324  0.1647597306918911  0.2323077890580123
  0.6568306428594965  0.6671465607375211  0.5058591986684959
  0.4976645541624620  0.8290757246348832  0.7477878350181655
  0.5033320670314296  0.5038583533043024  0.7527465155861748
  0.3362271930772920  0.9958170428305166  0.4994573599084404
  0.4966438910937256  0.8298560206160062  0.2568496711015342
  0.8359431393914249  0.1742397430183686  0.2399362352671659
  0.5005825923628180  0.1652068230216202  0.7482301717386264
  0.3335342742779801  0.9985170042414353  0.9803130921378909
  0.4976491859519712  0.1641727993582549  0.2463649962095360
  0.0033560907448873  0.0085364786119726  0.4945226666766658
  0.1684422557217431  0.8376011753837815  0.2334496173624814
  0.6642218239208759  0.3296336488040765  0.5100309445371707
  0.8402413960763369  0.8324789796985144  0.7641366764615114
  0.3408950632171965  0.6668433795854298  0.5051246213399949
  0.8347795854184170  0.4978285316912618  0.7729886360962439
  0.0034883960717806  0.6697461467603603  0.5025585047020016
  0.1584482274279040  0.5018803142305615  0.2285870043501177
  0.3291727619616154  0.3303471700788236  0.5030674932484942
  0.6669239311637156  0.9972489334212611  0.5023130643436531
  0.6527909004154395  0.6714304107715066  0.0155951082533932
  0.3325826087128760  0.3360215556390145  0.9848656465898245
  0.0017307983304917  0.3226520385610314  0.5093616625381259
  0.8310030466470550  0.4962204526314693  0.2461523489550572
  0.6715177372668037  0.0019314718377359  0.0067690840407693
 
  0.00000000E+00  0.00000000E+00  0.00000000E+00
  0.00000000E+00  0.00000000E+00  0.00000000E+00
  0.00000000E+00  0.00000000E+00  0.00000000E+00
  0.00000000E+00  0.00000000E+00  0.00000000E+00
  0.00000000E+00  0.00000000E+00  0.00000000E+00
  0.00000000E+00  0.00000000E+00  0.00000000E+00
  0.00000000E+00  0.00000000E+00  0.00000000E+00
  0.00000000E+00  0.00000000E+00  0.00000000E+00
  0.00000000E+00  0.00000000E+00  0.00000000E+00
  0.00000000E+00  0.00000000E+00  0.00000000E+00
  0.00000000E+00  0.00000000E+00  0.00000000E+00
  0.00000000E+00  0.00000000E+00  0.00000000E+00
  0.00000000E+00  0.00000000E+00  0.00000000E+00
  0.00000000E+00  0.00000000E+00  0.00000000E+00
  0.00000000E+00  0.00000000E+00  0.00000000E+00
  0.00000000E+00  0.00000000E+00  0.00000000E+00
  0.00000000E+00  0.00000000E+00  0.00000000E+00
  0.00000000E+00  0.00000000E+00  0.00000000E+00
  0.00000000E+00  0.00000000E+00  0.00000000E+00
  0.00000000E+00  0.00000000E+00  0.00000000E+00
  0.00000000E+00  0.00000000E+00  0.00000000E+00
  0.00000000E+00  0.00000000E+00  0.00000000E+00
  0.00000000E+00  0.00000000E+00  0.00000000E+00
  0.00000000E+00  0.00000000E+00  0.00000000E+00
  0.00000000E+00  0.00000000E+00  0.00000000E+00
  0.00000000E+00  0.00000000E+00  0.00000000E+00
  0.00000000E+00  0.00000000E+00  0.00000000E+00
  0.00000000E+00  0.00000000E+00  0.00000000E+00
  0.00000000E+00  0.00000000E+00  0.00000000E+00
  0.00000000E+00  0.00000000E+00  0.00000000E+00
  0.00000000E+00  0.00000000E+00  0.00000000E+00
  0.00000000E+00  0.00000000E+00  0.00000000E+00
  0.00000000E+00  0.00000000E+00  0.00000000E+00
  0.00000000E+00  0.00000000E+00  0.00000000E+00
  0.00000000E+00  0.00000000E+00  0.00000000E+00
  0.00000000E+00  0.00000000E+00  0.00000000E+00
