title                                   
    1.000000000000000     
     9.3486865086809701    0.0093979554506664   -0.0090163846507341
     0.0093755309021741    9.3339829753283858    0.0061847892036496
    -0.0059960979581405    0.0041071542060894    6.2239740495918134
   Cr   Mo   Ta   V_   W_
     7     8     7     7     7
Direct
  0.0010327834790260  0.9943197350243764  0.9997379993740481
  0.8361181228798529  0.8308974920299264  0.2473977638058500
  0.3298652752224740  0.6678025401951615  0.9970061451241037
  0.4988781219343466  0.5011589559965586  0.7528456474885985
  0.6729814962026452  0.6654645422061591  0.9992374872807090
  0.6669191800564818  0.9975745354672370  0.5016577817520869
  0.8355503907464197  0.5033242281810644  0.2464092045492876
  0.3343040725057804  0.3319951868268731  0.5019104234565432
  0.4982998171891424  0.8312120112295815  0.7520430669958245
  0.8364390652548082  0.1636870286954775  0.2509778368395317
  0.4982236115688607  0.1643874520230781  0.2566023974501803
  0.3310980060091211  0.6692148899656161  0.5054864554628793
  0.0009016556314592  0.9948053650146278  0.4937045960534689
  0.1646944330442608  0.8321316036634983  0.2425841563768643
  0.3314146682827896  0.9979014915238338  0.9935360617864148
  0.6691633107645956  0.9973497207139701  0.0036565231844961
  0.1660882799697205  0.5053507734920046  0.7568099257991250
  0.6738322363030420  0.6644088681325186  0.5050334583584615
  0.6675678952432307  0.3376450776837743  0.9979461549227082
  0.4956806396753777  0.5066378349608840  0.2455224726617686
  0.8374280015001787  0.1632389795798588  0.7465087664124184
  0.4984832289802554  0.8312465946746244  0.2509609928208931
  0.4984520866495359  0.1645527762449461  0.7431097551116039
  0.1660080495431444  0.8331010904171237  0.7538243855018862
  0.1657640715441175  0.5015111736564535  0.2464212244191941
  0.8362681175145354  0.5029027028011726  0.7573350255349922
  0.3310292096138596  0.0010788862360016  0.5013202193139392
  0.9954438485541743  0.6684451229667090  0.0088067252485686
  0.9983449761667345  0.3376777143252738  0.0057503645879535
  0.6669829657538955  0.3376751446130726  0.5024792859525320
  0.1640509917799662  0.1658550186247965  0.2461528315645580
  0.3344192132738542  0.3332062416496626  0.9968329091523103
  0.1657098920123516  0.1643474812244463  0.7490485416106551
  0.9981032537735288  0.3387146973240007  0.4920314422833485
  0.9962129452064303  0.6672049837564700  0.4928753150389937
  0.8382460861700025  0.8319720588791739  0.7564366567232099
 
  0.00000000E+00  0.00000000E+00  0.00000000E+00
  0.00000000E+00  0.00000000E+00  0.00000000E+00
  0.00000000E+00  0.00000000E+00  0.00000000E+00
  0.00000000E+00  0.00000000E+00  0.00000000E+00
  0.00000000E+00  0.00000000E+00  0.00000000E+00
  0.00000000E+00  0.00000000E+00  0.00000000E+00
  0.00000000E+00  0.00000000E+00  0.00000000E+00
  0.00000000E+00  0.00000000E+00  0.00000000E+00
  0.00000000E+00  0.00000000E+00  0.00000000E+00
  0.00000000E+00  0.00000000E+00  0.00000000E+00
  0.00000000E+00  0.00000000E+00  0.00000000E+00
  0.00000000E+00  0.00000000E+00  0.00000000E+00
  0.00000000E+00  0.00000000E+00  0.00000000E+00
  0.00000000E+00  0.00000000E+00  0.00000000E+00
  0.00000000E+00  0.00000000E+00  0.00000000E+00
  0.00000000E+00  0.00000000E+00  0.00000000E+00
  0.00000000E+00  0.00000000E+00  0.00000000E+00
  0.00000000E+00  0.00000000E+00  0.00000000E+00
  0.00000000E+00  0.00000000E+00  0.00000000E+00
  0.00000000E+00  0.00000000E+00  0.00000000E+00
  0.00000000E+00  0.00000000E+00  0.00000000E+00
  0.00000000E+00  0.00000000E+00  0.00000000E+00
  0.00000000E+00  0.00000000E+00  0.00000000E+00
  0.00000000E+00  0.00000000E+00  0.00000000E+00
  0.00000000E+00  0.00000000E+00  0.00000000E+00
  0.00000000E+00  0.00000000E+00  0.00000000E+00
  0.00000000E+00  0.00000000E+00  0.00000000E+00
  0.00000000E+00  0.00000000E+00  0.00000000E+00
  0.00000000E+00  0.00000000E+00  0.00000000E+00
  0.00000000E+00  0.00000000E+00  0.00000000E+00
  0.00000000E+00  0.00000000E+00  0.00000000E+00
  0.00000000E+00  0.00000000E+00  0.00000000E+00
  0.00000000E+00  0.00000000E+00  0.00000000E+00
  0.00000000E+00  0.00000000E+00  0.00000000E+00
  0.00000000E+00  0.00000000E+00  0.00000000E+00
  0.00000000E+00  0.00000000E+00  0.00000000E+00
