WMoTiPt-9 quaternary alloy: 21 W, 21 Mo,
    1.000000000000000     
     9.3952266226896715    0.0196668014301167    0.0390032558196669
     0.0192035011535939    9.5800882022805602   -0.0077788912491528
     0.0395197616660738   -0.0078923862546576    9.5779450266611494
   W    Mo   Ti   Pt
    21    21     3     9
Direct
  0.9868655577847321  0.3464201069935058  0.9962908469003011
  0.1703911505434164  0.4970470691590592  0.1605588126801933
  0.1780579332255599  0.4888219993867722  0.5104347440372692
  0.9909414564536334  0.3339040869266867  0.6754648125790652
  0.9970356710958868  0.6673535826460579  0.6582536318381713
  0.1655788894972119  0.8349616878832649  0.8309562913803745
  0.3304490324762384  0.9933399021601730  0.0020369851976128
  0.4918412584561267  0.1626017503785846  0.1653081100474196
  0.4953939397014722  0.1643223768997331  0.4907583590475113
  0.5010918748422100  0.1512430147234483  0.8449200344544678
  0.3456189236718785  0.3387797456208048  0.9955946995748590
  0.4956617626602409  0.5086991965443346  0.1693685496989303
  0.5069669584566441  0.5111232807003887  0.8318464326932258
  0.4928015527045346  0.8412988709887230  0.4908951357577820
  0.3349370819209128  0.6663689859211814  0.6628112255024874
  0.5004982894724819  0.8320505833935954  0.8360469824143024
  0.8418466533708440  0.1683417944740242  0.1669402794196770
  0.8343930174815242  0.1685334841088846  0.4932459321992226
  0.6670896973873823  0.9993026452743052  0.6601198203048639
  0.8404482410386791  0.1603343915886200  0.8385355807836135
  0.6640650463570026  0.3307819754629477  0.3165276849765775
  0.9932096505995531  0.9930710725163436  0.9988172133405371
  0.0019808310431486  0.0136300164526943  0.3356620785306674
  0.9942069463763232  0.9999063108758577  0.6691399265134521
  0.1679334519887803  0.4991673034229933  0.8309439316832936
  0.1582419207220838  0.8304204645388396  0.1662145320611472
  0.1674759718199752  0.8461739147960188  0.5047624392450984
  0.3226069165094287  0.9984394562291072  0.3280076308405526
  0.3375318166813912  0.9983028265752480  0.6719525859505993
  0.3331471159350770  0.3350016559965354  0.3295053104789147
  0.5081364817096485  0.4923645940669132  0.4975440493763585
  0.3501945315810318  0.3365111573694648  0.6767933110486979
  0.3284542471446272  0.6671971837944568  0.9996288613901214
  0.4914642708974668  0.8293102572815769  0.1683047730643139
  0.3233149982638466  0.6667633140352791  0.3367621072632261
  0.6656125142076945  0.0032400186450232  0.3245372799593369
  0.8398179689768455  0.5097655954756561  0.1718359981700317
  0.8281826702180268  0.5070406252618866  0.8206838067403694
  0.6654615416665379  0.6688324452258811  0.0036645473416357
  0.6549500349433615  0.6682933177651620  0.3392860598054384
  0.8381111096075031  0.8452514938472575  0.4822599554745892
  0.8358638300867653  0.8326800354835484  0.8242818200777435
  0.1711686516878430  0.1675915606039027  0.8341621691124672
  0.0041001784702246  0.3386277869153531  0.3344084278578734
  0.9971021151808017  0.6661904397800100  0.9907653990793719
  0.1600149367525532  0.1800430886612645  0.1451309852022007
  0.1737660996243449  0.1757859830203543  0.5155059108685336
  0.0129642826771246  0.6482720802201243  0.3572407823707948
  0.6816517578946488  0.9826922161905145  0.0214740478220747
  0.6667009896041236  0.3449289827986419  0.0108849320728908
  0.8185701750545036  0.4799187592708591  0.5005937369314637
  0.6577480610260551  0.3116760756622412  0.6797008213358922
  0.8545057047896307  0.8130164386197620  0.1838909497154688
  0.6638408280237029  0.6842616936118102  0.6471725419482762
 
  0.00000000E+00  0.00000000E+00  0.00000000E+00
  0.00000000E+00  0.00000000E+00  0.00000000E+00
  0.00000000E+00  0.00000000E+00  0.00000000E+00
  0.00000000E+00  0.00000000E+00  0.00000000E+00
  0.00000000E+00  0.00000000E+00  0.00000000E+00
  0.00000000E+00  0.00000000E+00  0.00000000E+00
  0.00000000E+00  0.00000000E+00  0.00000000E+00
  0.00000000E+00  0.00000000E+00  0.00000000E+00
  0.00000000E+00  0.00000000E+00  0.00000000E+00
  0.00000000E+00  0.00000000E+00  0.00000000E+00
  0.00000000E+00  0.00000000E+00  0.00000000E+00
  0.00000000E+00  0.00000000E+00  0.00000000E+00
  0.00000000E+00  0.00000000E+00  0.00000000E+00
  0.00000000E+00  0.00000000E+00  0.00000000E+00
  0.00000000E+00  0.00000000E+00  0.00000000E+00
  0.00000000E+00  0.00000000E+00  0.00000000E+00
  0.00000000E+00  0.00000000E+00  0.00000000E+00
  0.00000000E+00  0.00000000E+00  0.00000000E+00
  0.00000000E+00  0.00000000E+00  0.00000000E+00
  0.00000000E+00  0.00000000E+00  0.00000000E+00
  0.00000000E+00  0.00000000E+00  0.00000000E+00
  0.00000000E+00  0.00000000E+00  0.00000000E+00
  0.00000000E+00  0.00000000E+00  0.00000000E+00
  0.00000000E+00  0.00000000E+00  0.00000000E+00
  0.00000000E+00  0.00000000E+00  0.00000000E+00
  0.00000000E+00  0.00000000E+00  0.00000000E+00
  0.00000000E+00  0.00000000E+00  0.00000000E+00
  0.00000000E+00  0.00000000E+00  0.00000000E+00
  0.00000000E+00  0.00000000E+00  0.00000000E+00
  0.00000000E+00  0.00000000E+00  0.00000000E+00
  0.00000000E+00  0.00000000E+00  0.00000000E+00
  0.00000000E+00  0.00000000E+00  0.00000000E+00
  0.00000000E+00  0.00000000E+00  0.00000000E+00
  0.00000000E+00  0.00000000E+00  0.00000000E+00
  0.00000000E+00  0.00000000E+00  0.00000000E+00
  0.00000000E+00  0.00000000E+00  0.00000000E+00
  0.00000000E+00  0.00000000E+00  0.00000000E+00
  0.00000000E+00  0.00000000E+00  0.00000000E+00
  0.00000000E+00  0.00000000E+00  0.00000000E+00
  0.00000000E+00  0.00000000E+00  0.00000000E+00
  0.00000000E+00  0.00000000E+00  0.00000000E+00
  0.00000000E+00  0.00000000E+00  0.00000000E+00
  0.00000000E+00  0.00000000E+00  0.00000000E+00
  0.00000000E+00  0.00000000E+00  0.00000000E+00
  0.00000000E+00  0.00000000E+00  0.00000000E+00
  0.00000000E+00  0.00000000E+00  0.00000000E+00
  0.00000000E+00  0.00000000E+00  0.00000000E+00
  0.00000000E+00  0.00000000E+00  0.00000000E+00
  0.00000000E+00  0.00000000E+00  0.00000000E+00
  0.00000000E+00  0.00000000E+00  0.00000000E+00
  0.00000000E+00  0.00000000E+00  0.00000000E+00
  0.00000000E+00  0.00000000E+00  0.00000000E+00
  0.00000000E+00  0.00000000E+00  0.00000000E+00
  0.00000000E+00  0.00000000E+00  0.00000000E+00
