title                                   
    1.000000000000000     
     9.9779432223421374    0.0178846105652894   -0.0109493518107318
     0.0157281232039660    9.9314050976078665    0.0111660691233767
    -0.0075515161457490    0.0079017279782038    6.8350611562013075
   Ta   Ti   W_   Zr
     4    19     3    10
Direct
  0.8365219354671893  0.5161186186137954  0.7700927648732261
  0.6577985298829461  0.9885056770953398  0.4552264590001869
  0.4885113983555343  0.4877624441598840  0.7704680123436844
  0.3281334338820088  0.3352955461689291  0.5125630218041763
  0.1969601172985094  0.1577431342180660  0.7479256128480500
  0.6555591406337484  0.6622392023472159  0.5274257512928244
  0.1660262338263578  0.8333586299530111  0.2213340869974374
  0.0209472567376991  0.9957181287572041  0.4936629446437806
  0.8402446222411157  0.8240474602184946  0.2339009505398266
  0.1727975829209143  0.5042509920837901  0.7891210722137885
  0.4884849430108744  0.1679970900918235  0.2512696081921177
  0.6631367261916097  0.3445572886729735  0.5453207182716326
  0.6490113129207060  0.6805073423025263  0.9802828594663566
  0.3537833634284127  0.6861833804347057  0.9916891130669896
  0.6517295126462344  0.9924505720372281  0.0191322780698044
  0.8141317080687216  0.1432817290640145  0.7157997194127503
  0.4851818826492291  0.8368269584770616  0.2776354904567881
  0.1687459535520972  0.8380906202078933  0.7778988291154789
  0.4930989724928310  0.1626582312481659  0.7437175671468168
  0.6711036700836033  0.3234832437928716  0.9640823800263831
  0.3496287521152510  0.9917053804769367  0.0006176755505791
  0.1958673177701726  0.1640264271095333  0.2547885980945708
  0.4958713626036300  0.8582941982521817  0.7143625418912265
  0.9978057853249354  0.6703031517903639  0.9952573646073404
  0.3262171892731089  0.0019770099743113  0.4957886745240714
  0.3414352446461137  0.3209086553065887  0.9976436443462333
  0.5059720528354248  0.4892488693993471  0.2442911672069101
  0.8255081370137560  0.5069894852902479  0.2419524166934650
  0.8292087658152667  0.8394085099258888  0.7464108572630010
  0.1732688236849071  0.4983772181487822  0.2248070796836359
  0.9994061231955840  0.0184092315109226  0.0024359144137662
  0.3265249268830459  0.6644075893010211  0.5146963337765413
  0.0110444082667200  0.6707062387356899  0.5045139899475473
  0.9955694214545687  0.3198957566424809  0.9842691887635624
  0.0119001051315877  0.3284855602332613  0.5158031402432073
  0.8128632876955777  0.1757804279574557  0.2738121732122423
 
  0.00000000E+00  0.00000000E+00  0.00000000E+00
  0.00000000E+00  0.00000000E+00  0.00000000E+00
  0.00000000E+00  0.00000000E+00  0.00000000E+00
  0.00000000E+00  0.00000000E+00  0.00000000E+00
  0.00000000E+00  0.00000000E+00  0.00000000E+00
  0.00000000E+00  0.00000000E+00  0.00000000E+00
  0.00000000E+00  0.00000000E+00  0.00000000E+00
  0.00000000E+00  0.00000000E+00  0.00000000E+00
  0.00000000E+00  0.00000000E+00  0.00000000E+00
  0.00000000E+00  0.00000000E+00  0.00000000E+00
  0.00000000E+00  0.00000000E+00  0.00000000E+00
  0.00000000E+00  0.00000000E+00  0.00000000E+00
  0.00000000E+00  0.00000000E+00  0.00000000E+00
  0.00000000E+00  0.00000000E+00  0.00000000E+00
  0.00000000E+00  0.00000000E+00  0.00000000E+00
  0.00000000E+00  0.00000000E+00  0.00000000E+00
  0.00000000E+00  0.00000000E+00  0.00000000E+00
  0.00000000E+00  0.00000000E+00  0.00000000E+00
  0.00000000E+00  0.00000000E+00  0.00000000E+00
  0.00000000E+00  0.00000000E+00  0.00000000E+00
  0.00000000E+00  0.00000000E+00  0.00000000E+00
  0.00000000E+00  0.00000000E+00  0.00000000E+00
  0.00000000E+00  0.00000000E+00  0.00000000E+00
  0.00000000E+00  0.00000000E+00  0.00000000E+00
  0.00000000E+00  0.00000000E+00  0.00000000E+00
  0.00000000E+00  0.00000000E+00  0.00000000E+00
  0.00000000E+00  0.00000000E+00  0.00000000E+00
  0.00000000E+00  0.00000000E+00  0.00000000E+00
  0.00000000E+00  0.00000000E+00  0.00000000E+00
  0.00000000E+00  0.00000000E+00  0.00000000E+00
  0.00000000E+00  0.00000000E+00  0.00000000E+00
  0.00000000E+00  0.00000000E+00  0.00000000E+00
  0.00000000E+00  0.00000000E+00  0.00000000E+00
  0.00000000E+00  0.00000000E+00  0.00000000E+00
  0.00000000E+00  0.00000000E+00  0.00000000E+00
  0.00000000E+00  0.00000000E+00  0.00000000E+00
