title                                   
    1.000000000000000     
    10.0246560288395195   -0.0138515721485014   -0.0078331036081219
    -0.0138610415292910   10.0493511279588397   -0.0053852738021561
    -0.0052083700172148   -0.0035516561061729    6.6535394387439917
   Hf   Nb   Ta   W_
     7    11    14     4
Direct
  0.6720344763169308  0.9928638983435576  0.5231347522526306
  0.4958631495132124  0.8401203827502144  0.2464789963259904
  0.5035016392286238  0.1773484419801576  0.7570561479368791
  0.8408610938083498  0.8295178004256201  0.2422245473275524
  0.8310977116706155  0.1717757157375530  0.2508690104363467
  0.3330154756599910  0.6591503657058695  0.9967726962858592
  0.3314996024765406  0.3386560372369232  0.4854285185190719
  0.0075747717934789  0.0027877110405612  0.9945621604189014
  0.6699997900764458  0.9962664284985721  0.9767822334103897
  0.0044513832940467  0.0013228175419897  0.5064841274017127
  0.1564725557677846  0.4972955682534277  0.7443291743952614
  0.0027435559557887  0.6630822208842559  0.5051347175147072
  0.0041071911980310  0.6595994482406269  0.9984378654915460
  0.8308043517830157  0.4942304575364460  0.2548358772427335
  0.1557866680989335  0.5032485212669400  0.2556539747553046
  0.1596423710936037  0.1656787568841054  0.2499831223094304
  0.1640329939846126  0.8369370852920923  0.7450041465977151
  0.4979896502114940  0.8309075358562197  0.7517764736071371
  0.8399009771186314  0.8220453237318637  0.7604958825166293
  0.8358640662648966  0.1791605306295807  0.7503863213557906
  0.0033311295567486  0.3354933443544255  0.0011156687353733
  0.3295840807125145  0.3405989629653448  0.0116840487284620
  0.5082071778296680  0.1698560404177343  0.2389427521564116
  0.6611937130132262  0.6583873453475562  0.0007785900230672
  0.6619969863371438  0.6629198568073349  0.5023455124901233
  0.1625280546340591  0.1685966376114152  0.7483791102244410
  0.3271915244500434  0.0060781224335997  0.4978472474844438
  0.5105324587072388  0.4907550397552995  0.7498713215120176
  0.8303456760176644  0.4940337184401713  0.7479694055266535
  0.1661433066805742  0.8348138527578683  0.2547744519285615
  0.3341301617974963  0.6604175731862227  0.5019183761064667
  0.3250319548663896  0.0027283697800726  0.9969129532067100
  0.6676999343949817  0.3404910685576823  0.0035184245237758
  0.0013178384451962  0.3352811581419175  0.5026729663071094
  0.6650549096860843  0.3398404266674646  0.4953110585007536
  0.5084676175559508  0.4977134349393282  0.2501273664440404
 
  0.00000000E+00  0.00000000E+00  0.00000000E+00
  0.00000000E+00  0.00000000E+00  0.00000000E+00
  0.00000000E+00  0.00000000E+00  0.00000000E+00
  0.00000000E+00  0.00000000E+00  0.00000000E+00
  0.00000000E+00  0.00000000E+00  0.00000000E+00
  0.00000000E+00  0.00000000E+00  0.00000000E+00
  0.00000000E+00  0.00000000E+00  0.00000000E+00
  0.00000000E+00  0.00000000E+00  0.00000000E+00
  0.00000000E+00  0.00000000E+00  0.00000000E+00
  0.00000000E+00  0.00000000E+00  0.00000000E+00
  0.00000000E+00  0.00000000E+00  0.00000000E+00
  0.00000000E+00  0.00000000E+00  0.00000000E+00
  0.00000000E+00  0.00000000E+00  0.00000000E+00
  0.00000000E+00  0.00000000E+00  0.00000000E+00
  0.00000000E+00  0.00000000E+00  0.00000000E+00
  0.00000000E+00  0.00000000E+00  0.00000000E+00
  0.00000000E+00  0.00000000E+00  0.00000000E+00
  0.00000000E+00  0.00000000E+00  0.00000000E+00
  0.00000000E+00  0.00000000E+00  0.00000000E+00
  0.00000000E+00  0.00000000E+00  0.00000000E+00
  0.00000000E+00  0.00000000E+00  0.00000000E+00
  0.00000000E+00  0.00000000E+00  0.00000000E+00
  0.00000000E+00  0.00000000E+00  0.00000000E+00
  0.00000000E+00  0.00000000E+00  0.00000000E+00
  0.00000000E+00  0.00000000E+00  0.00000000E+00
  0.00000000E+00  0.00000000E+00  0.00000000E+00
  0.00000000E+00  0.00000000E+00  0.00000000E+00
  0.00000000E+00  0.00000000E+00  0.00000000E+00
  0.00000000E+00  0.00000000E+00  0.00000000E+00
  0.00000000E+00  0.00000000E+00  0.00000000E+00
  0.00000000E+00  0.00000000E+00  0.00000000E+00
  0.00000000E+00  0.00000000E+00  0.00000000E+00
  0.00000000E+00  0.00000000E+00  0.00000000E+00
  0.00000000E+00  0.00000000E+00  0.00000000E+00
  0.00000000E+00  0.00000000E+00  0.00000000E+00
  0.00000000E+00  0.00000000E+00  0.00000000E+00
