WMoPt-12 alloy: 21 W, 21 Mo, 12 Pt      
    1.000000000000000     
     9.5525034719932549    0.0267960752219075   -0.0234573751429721
     0.0272371557838506    9.5375086605687223    0.0342422126274425
    -0.0232260330612203    0.0338906682255349    9.4588037867597787
   W    Mo   Pt
    21    21    12
Direct
  0.9938485396213750  0.0112059916115683  0.0068760538873605
  0.9948111424682082  0.0105082922021822  0.3397595812134782
  0.9965366582890098  0.3406503028875605  0.9990889056623189
  0.1797241497901325  0.4994302818037042  0.1567377047793599
  0.0180317710085376  0.3368022178246619  0.3334011027937436
  0.1682805960157552  0.4887876920337249  0.8350898379378009
  0.5027700031161402  0.1623363783057599  0.1732952651913280
  0.4966129747419572  0.1604657537952079  0.8243779590042948
  0.3370829616249367  0.3302214404270885  0.9981950852563628
  0.5083705849334024  0.4997025907416699  0.1529959893709147
  0.5123575791647568  0.8262688361330817  0.1620804300924945
  0.3361584850526782  0.6676200231947504  0.3196665308581714
  0.4946903526382300  0.8303639498273157  0.5029850797400783
  0.5073176956542866  0.8391111528419870  0.8331791341471657
  0.6709264001748565  0.0026925961023210  0.0018888466258815
  0.8385290652609783  0.1922421053732677  0.4934270665510141
  0.6761452438363591  0.0006106875490275  0.6574336143018940
  0.6383867705496087  0.3407346046059629  0.3494107027191973
  0.6607738274773070  0.3293636696525084  0.6592016045617797
  0.6779626026363132  0.6663405400163924  0.9928857497141692
  0.6617247496511141  0.6747067629391523  0.3379209272036192
  0.1672496352264972  0.1710775172256191  0.1664683898196060
  0.1781193245898791  0.1635050226194252  0.4937833993086471
  0.1702652541658480  0.1630185067063721  0.8371995020689127
  0.1639938345344376  0.5131113571822041  0.5005463172574096
  0.0116659925794451  0.3265066811706419  0.6689683747257078
  0.1525531407668694  0.8303266907341538  0.1670294674104866
  0.0021352382351978  0.6506553864871165  0.3035806105996102
  0.0139416228126379  0.6755625975672075  0.6903475460767794
  0.1602602050757937  0.8434831885537548  0.8642283828896922
  0.3364784852375706  0.9993580652696252  0.0057152672156491
  0.3136239466408739  0.9861200976019191  0.6762725675941113
  0.3305159787145797  0.3303959028360666  0.6573795638724818
  0.5004470614467991  0.4963234037916138  0.8198703198416197
  0.3414429511110910  0.6663593913070827  0.9942965023219159
  0.8286524924293062  0.1790485618616700  0.1694552054028620
  0.8306494486908420  0.1726411845243376  0.8306889614719495
  0.6622733441163220  0.3316294619507048  0.9869533258851462
  0.8302999311241521  0.4987000316507419  0.8131592927043485
  0.8348756551029979  0.8389426463488405  0.1688744812945657
  0.6685514118213405  0.6772364745955457  0.6682185679146428
  0.8347740354357995  0.8383534674371731  0.8345285498454800
  0.9982125666038186  0.0089138253214287  0.6610634780643281
  0.9790390444994159  0.6444227638820408  0.0061892336874863
  0.1592143758877569  0.8212729155958414  0.4823306817944584
  0.3330786169178523  0.9796892180608765  0.3123556047315290
  0.4810886593420847  0.1432867453811255  0.4985836070161582
  0.3431534248449140  0.3488982774977458  0.3419319755184844
  0.4856119361060891  0.5243611107464972  0.5236156081452776
  0.3145209246609539  0.6882807065573999  0.6897054762950177
  0.6847378854346928  0.9960573323727147  0.3544691991305200
  0.8093326218371288  0.4745041066604330  0.1805922643569531
  0.8489298714992444  0.5014048126757871  0.5086817271507300
  0.8592650568444653  0.8063923240244438  0.4914335227276950
 
  0.00000000E+00  0.00000000E+00  0.00000000E+00
  0.00000000E+00  0.00000000E+00  0.00000000E+00
  0.00000000E+00  0.00000000E+00  0.00000000E+00
  0.00000000E+00  0.00000000E+00  0.00000000E+00
  0.00000000E+00  0.00000000E+00  0.00000000E+00
  0.00000000E+00  0.00000000E+00  0.00000000E+00
  0.00000000E+00  0.00000000E+00  0.00000000E+00
  0.00000000E+00  0.00000000E+00  0.00000000E+00
  0.00000000E+00  0.00000000E+00  0.00000000E+00
  0.00000000E+00  0.00000000E+00  0.00000000E+00
  0.00000000E+00  0.00000000E+00  0.00000000E+00
  0.00000000E+00  0.00000000E+00  0.00000000E+00
  0.00000000E+00  0.00000000E+00  0.00000000E+00
  0.00000000E+00  0.00000000E+00  0.00000000E+00
  0.00000000E+00  0.00000000E+00  0.00000000E+00
  0.00000000E+00  0.00000000E+00  0.00000000E+00
  0.00000000E+00  0.00000000E+00  0.00000000E+00
  0.00000000E+00  0.00000000E+00  0.00000000E+00
  0.00000000E+00  0.00000000E+00  0.00000000E+00
  0.00000000E+00  0.00000000E+00  0.00000000E+00
  0.00000000E+00  0.00000000E+00  0.00000000E+00
  0.00000000E+00  0.00000000E+00  0.00000000E+00
  0.00000000E+00  0.00000000E+00  0.00000000E+00
  0.00000000E+00  0.00000000E+00  0.00000000E+00
  0.00000000E+00  0.00000000E+00  0.00000000E+00
  0.00000000E+00  0.00000000E+00  0.00000000E+00
  0.00000000E+00  0.00000000E+00  0.00000000E+00
  0.00000000E+00  0.00000000E+00  0.00000000E+00
  0.00000000E+00  0.00000000E+00  0.00000000E+00
  0.00000000E+00  0.00000000E+00  0.00000000E+00
  0.00000000E+00  0.00000000E+00  0.00000000E+00
  0.00000000E+00  0.00000000E+00  0.00000000E+00
  0.00000000E+00  0.00000000E+00  0.00000000E+00
  0.00000000E+00  0.00000000E+00  0.00000000E+00
  0.00000000E+00  0.00000000E+00  0.00000000E+00
  0.00000000E+00  0.00000000E+00  0.00000000E+00
  0.00000000E+00  0.00000000E+00  0.00000000E+00
  0.00000000E+00  0.00000000E+00  0.00000000E+00
  0.00000000E+00  0.00000000E+00  0.00000000E+00
  0.00000000E+00  0.00000000E+00  0.00000000E+00
  0.00000000E+00  0.00000000E+00  0.00000000E+00
  0.00000000E+00  0.00000000E+00  0.00000000E+00
  0.00000000E+00  0.00000000E+00  0.00000000E+00
  0.00000000E+00  0.00000000E+00  0.00000000E+00
  0.00000000E+00  0.00000000E+00  0.00000000E+00
  0.00000000E+00  0.00000000E+00  0.00000000E+00
  0.00000000E+00  0.00000000E+00  0.00000000E+00
  0.00000000E+00  0.00000000E+00  0.00000000E+00
  0.00000000E+00  0.00000000E+00  0.00000000E+00
  0.00000000E+00  0.00000000E+00  0.00000000E+00
  0.00000000E+00  0.00000000E+00  0.00000000E+00
  0.00000000E+00  0.00000000E+00  0.00000000E+00
  0.00000000E+00  0.00000000E+00  0.00000000E+00
  0.00000000E+00  0.00000000E+00  0.00000000E+00
