title                                   
    1.000000000000000     
    10.4053390601212712   -0.0095901959531432   -0.0237545871366622
    -0.0091004334321814   10.4604481742326758   -0.0246035941973889
    -0.0158430728072297   -0.0168663284255959    7.1920578897780301
   Hf   Nb   Zr
    10     8    18
Direct
  0.3295691271134800  0.6663673930496330  0.4961761255589394
  0.0025407424825161  0.0018076058333563  0.5255494807204428
  0.9962934085388611  0.3351647967984377  0.4889030360869455
  0.3398487335830893  0.3403686670112052  0.0194192876354293
  0.0002783913863738  0.0007481906992339  0.9669092019163870
  0.5110625509749980  0.8322708399194241  0.7285106267292605
  0.4851759671345661  0.1584177312760744  0.2901458361160323
  0.8521260242310973  0.5032730898044093  0.2182667368659850
  0.3139766958471455  0.9784824150632048  0.5184886714528929
  0.6667343580174148  0.6590447796644909  0.4656287113649284
  0.5038085511591177  0.8476413140408212  0.2868222187730609
  0.6765950599419384  0.0043222726687091  0.4747455637191962
  0.1461523842721206  0.4972538802907280  0.2268677293868606
  0.8423661773866087  0.1671876909748491  0.2330781467575420
  0.0077052411200356  0.3316301107693249  0.0009924294971739
  0.1822144932841923  0.8237370856148729  0.7723096306563306
  0.1662875956753211  0.4832711464249968  0.7689324462624754
  0.4974665592104586  0.4957777726036809  0.2692149993357518
  0.1769145891439408  0.1843240026243009  0.7500504442045113
  0.3372652900504178  0.6601249868664496  0.0140392768514204
  0.6510940235915257  0.3260737673506213  0.0261378667101368
  0.0121756218438520  0.6673476708731201  0.9626801943735970
  0.3164157786272810  0.3602860487030952  0.4877754006847894
  0.5117810014766917  0.5011278551525109  0.7401885719334800
  0.0156514670713079  0.6602545242135776  0.5165437869101694
  0.1504943773717784  0.8401595008109695  0.2334918499151613
  0.6485582317972671  0.6743246560164451  0.0316373946591284
  0.8258267210633292  0.4966442027761104  0.7631257124751372
  0.5025566293078043  0.1643642357993116  0.7330075143327690
  0.3431653241757786  0.9927872908129629  0.9997528640757736
  0.8137389367122481  0.8344402615138407  0.7352078796091135
  0.6822133055004684  0.3376099765583405  0.4724493843488702
  0.1622587579189343  0.1615277593541364  0.2508885396546106
  0.8221679351805093  0.1719844230860730  0.7557557089081399
  0.8466366148790954  0.8362078898168264  0.2511775157494824
  0.6608833329284352  0.0036441651638199  0.0251292157680822
 
  0.00000000E+00  0.00000000E+00  0.00000000E+00
  0.00000000E+00  0.00000000E+00  0.00000000E+00
  0.00000000E+00  0.00000000E+00  0.00000000E+00
  0.00000000E+00  0.00000000E+00  0.00000000E+00
  0.00000000E+00  0.00000000E+00  0.00000000E+00
  0.00000000E+00  0.00000000E+00  0.00000000E+00
  0.00000000E+00  0.00000000E+00  0.00000000E+00
  0.00000000E+00  0.00000000E+00  0.00000000E+00
  0.00000000E+00  0.00000000E+00  0.00000000E+00
  0.00000000E+00  0.00000000E+00  0.00000000E+00
  0.00000000E+00  0.00000000E+00  0.00000000E+00
  0.00000000E+00  0.00000000E+00  0.00000000E+00
  0.00000000E+00  0.00000000E+00  0.00000000E+00
  0.00000000E+00  0.00000000E+00  0.00000000E+00
  0.00000000E+00  0.00000000E+00  0.00000000E+00
  0.00000000E+00  0.00000000E+00  0.00000000E+00
  0.00000000E+00  0.00000000E+00  0.00000000E+00
  0.00000000E+00  0.00000000E+00  0.00000000E+00
  0.00000000E+00  0.00000000E+00  0.00000000E+00
  0.00000000E+00  0.00000000E+00  0.00000000E+00
  0.00000000E+00  0.00000000E+00  0.00000000E+00
  0.00000000E+00  0.00000000E+00  0.00000000E+00
  0.00000000E+00  0.00000000E+00  0.00000000E+00
  0.00000000E+00  0.00000000E+00  0.00000000E+00
  0.00000000E+00  0.00000000E+00  0.00000000E+00
  0.00000000E+00  0.00000000E+00  0.00000000E+00
  0.00000000E+00  0.00000000E+00  0.00000000E+00
  0.00000000E+00  0.00000000E+00  0.00000000E+00
  0.00000000E+00  0.00000000E+00  0.00000000E+00
  0.00000000E+00  0.00000000E+00  0.00000000E+00
  0.00000000E+00  0.00000000E+00  0.00000000E+00
  0.00000000E+00  0.00000000E+00  0.00000000E+00
  0.00000000E+00  0.00000000E+00  0.00000000E+00
  0.00000000E+00  0.00000000E+00  0.00000000E+00
  0.00000000E+00  0.00000000E+00  0.00000000E+00
  0.00000000E+00  0.00000000E+00  0.00000000E+00
