WMoRe-Zr quaternary alloy: 14 W, 14 Mo, 
    1.000000000000000     
     9.5878029116046992   -0.0070886248560705    0.0056848928570517
    -0.0070857074040223    9.5945253811790536   -0.0036521744605609
     0.0037862773951480   -0.0024348894490695    6.4044540487978221
   W    Mo   Re   Zr
    14    14     4     4
Direct
  0.9984457364799582  0.9968053887199204  0.9956630588228279
  0.1657758510929810  0.1670462710378615  0.7502604493572989
  0.0006966161892308  0.3321405927286776  0.9944805554734728
  0.0006820173407149  0.3326926117250082  0.5064269146412030
  0.3334552780939362  0.3386963030297352  0.9931907612418698
  0.4970893514497021  0.4982891814900441  0.2540226892981750
  0.3345527401417243  0.3386568841085307  0.5072572266851267
  0.3322219857635602  0.6671543589168607  0.0005441354904860
  0.3327930966537735  0.6671982605109008  0.5008590218017375
  0.8334040411595041  0.1660516111614569  0.2502024372486602
  0.6684430811638791  0.9975681927141906  0.5058035840820096
  0.8323050435057411  0.1653316315240758  0.7501374834479222
  0.8358384303134514  0.4961734365314925  0.7461956215849455
  0.8368268407250383  0.8364372311610850  0.2545182346656816
  0.1669409415038672  0.5017466747565891  0.2495451550698249
  0.1676023387142607  0.5019317561701584  0.7496703485036420
  0.0038889589088171  0.6698408523840698  0.9980434151880360
  0.1661582154595393  0.8318132672540486  0.2497832262264410
  0.0039187705766679  0.6699532797081673  0.5025017563195675
  0.1669750727007582  0.8333118363714789  0.7491743199178202
  0.3332181293004481  0.9948377869151486  0.9932910546965488
  0.3338172013118310  0.9943066858628811  0.5049057324423387
  0.4971981867055817  0.4990070220126981  0.7478628081149239
  0.4969197150389633  0.8347155815859963  0.2527321030043694
  0.6693734555313995  0.9985757969276463  0.9980681153873405
  0.6657052993579669  0.3322961471042873  0.9935784273026371
  0.6639414034858646  0.6688895266432198  0.5019010550182728
  0.8354239616199166  0.8364802397656632  0.7479940465480510
  0.9970192690358815  0.9975808592257920  0.5032670012704017
  0.5006718171237026  0.1670942037651812  0.7494780411070536
  0.4963744690374128  0.8354086140023398  0.7463838116051704
  0.6670040286336487  0.3314100659096866  0.5048195515161709
  0.1668233720408381  0.1642542709356789  0.2506014967534398
  0.5016035743678060  0.1656915598114210  0.2487274687815599
  0.8343376442631154  0.5003111182349187  0.2521452788517635
  0.6625549896865890  0.6703003055948329  0.9936214913610518
 
  0.00000000E+00  0.00000000E+00  0.00000000E+00
  0.00000000E+00  0.00000000E+00  0.00000000E+00
  0.00000000E+00  0.00000000E+00  0.00000000E+00
  0.00000000E+00  0.00000000E+00  0.00000000E+00
  0.00000000E+00  0.00000000E+00  0.00000000E+00
  0.00000000E+00  0.00000000E+00  0.00000000E+00
  0.00000000E+00  0.00000000E+00  0.00000000E+00
  0.00000000E+00  0.00000000E+00  0.00000000E+00
  0.00000000E+00  0.00000000E+00  0.00000000E+00
  0.00000000E+00  0.00000000E+00  0.00000000E+00
  0.00000000E+00  0.00000000E+00  0.00000000E+00
  0.00000000E+00  0.00000000E+00  0.00000000E+00
  0.00000000E+00  0.00000000E+00  0.00000000E+00
  0.00000000E+00  0.00000000E+00  0.00000000E+00
  0.00000000E+00  0.00000000E+00  0.00000000E+00
  0.00000000E+00  0.00000000E+00  0.00000000E+00
  0.00000000E+00  0.00000000E+00  0.00000000E+00
  0.00000000E+00  0.00000000E+00  0.00000000E+00
  0.00000000E+00  0.00000000E+00  0.00000000E+00
  0.00000000E+00  0.00000000E+00  0.00000000E+00
  0.00000000E+00  0.00000000E+00  0.00000000E+00
  0.00000000E+00  0.00000000E+00  0.00000000E+00
  0.00000000E+00  0.00000000E+00  0.00000000E+00
  0.00000000E+00  0.00000000E+00  0.00000000E+00
  0.00000000E+00  0.00000000E+00  0.00000000E+00
  0.00000000E+00  0.00000000E+00  0.00000000E+00
  0.00000000E+00  0.00000000E+00  0.00000000E+00
  0.00000000E+00  0.00000000E+00  0.00000000E+00
  0.00000000E+00  0.00000000E+00  0.00000000E+00
  0.00000000E+00  0.00000000E+00  0.00000000E+00
  0.00000000E+00  0.00000000E+00  0.00000000E+00
  0.00000000E+00  0.00000000E+00  0.00000000E+00
  0.00000000E+00  0.00000000E+00  0.00000000E+00
  0.00000000E+00  0.00000000E+00  0.00000000E+00
  0.00000000E+00  0.00000000E+00  0.00000000E+00
  0.00000000E+00  0.00000000E+00  0.00000000E+00
