title                                   
    1.000000000000000     
     9.3980131957733306   -0.0472715740640034   -0.0863503094362759
    -0.0477245136256778    9.3917565591009993   -0.0454259143571456
    -0.0583903170094431   -0.0312065300415412    6.3561725569503196
   Cr   Mo   Nb   Ti   Zr
    11     4     3    15     3
Direct
  0.3193242625516532  0.6870701940303761  0.9878990498990277
  0.8376356115118924  0.8280849969315369  0.7502910237779190
  0.6565021057269007  0.0096993065484128  0.4957911101569366
  0.3409201048745913  0.0031879809805275  0.9935262367256641
  0.5018563543932331  0.5064400735481840  0.7443624970592069
  0.6532082248174405  0.0091692666940446  0.9893311820565032
  0.1769389322948811  0.8199796985529275  0.2308640048935757
  0.5142202058968337  0.1550515336294893  0.7526043042341257
  0.0085631160040904  0.6713813429396325  0.9933073902355289
  0.5010910239658841  0.1529354399595988  0.2350439818379613
  0.1782924079376400  0.8272426216774846  0.7821925264715759
  0.8222902490095052  0.1552227657632557  0.2486039972636576
  0.1627995271251805  0.5083398146836657  0.7705638374940520
  0.4997685306229656  0.8457844339287632  0.7614424339286074
  0.1741204247164987  0.1574144061008909  0.7579702970960511
  0.6637252330449499  0.6719785262670115  0.5177416810640167
  0.8378075507123341  0.5035213485532921  0.2414942867905836
  0.9953477947176452  0.3240345435708960  0.9985443158627092
  0.6532253055726045  0.6668259224162014  0.9710855596954815
  0.6580828001018446  0.3229682651257590  0.4915554189606013
  0.3206754235785994  0.6851670422671035  0.5281141789852484
  0.0113480085077384  0.9838300417229391  0.9837922314754408
  0.0117778554782078  0.6757445059378355  0.5171501700854932
  0.0163791943917957  0.9813181331936889  0.5185514169549563
  0.8182922101824062  0.1392064222714922  0.7410344045822370
  0.4951480192843007  0.8536960638019053  0.2413491970222665
  0.3450042738246211  0.3278816145080654  0.9733680582889548
  0.6527201892850130  0.3256357398467031  0.9880733431524575
  0.3423342621237282  0.0000059229010034  0.5178212569700946
  0.3457817794449056  0.3363915458785200  0.5338478423930297
  0.9965835710201532  0.3278176495196234  0.5043485732054336
  0.8389281530799266  0.5069239031041874  0.7600505290812478
  0.1618591801393165  0.5120710297488955  0.2427349252848074
  0.4761349306919840  0.5175075925229322  0.2435025292675874
  0.8289285856596749  0.8366675546322000  0.2404566156091263
  0.1823845977090670  0.1638027562409690  0.2515895921378259
 
  0.00000000E+00  0.00000000E+00  0.00000000E+00
  0.00000000E+00  0.00000000E+00  0.00000000E+00
  0.00000000E+00  0.00000000E+00  0.00000000E+00
  0.00000000E+00  0.00000000E+00  0.00000000E+00
  0.00000000E+00  0.00000000E+00  0.00000000E+00
  0.00000000E+00  0.00000000E+00  0.00000000E+00
  0.00000000E+00  0.00000000E+00  0.00000000E+00
  0.00000000E+00  0.00000000E+00  0.00000000E+00
  0.00000000E+00  0.00000000E+00  0.00000000E+00
  0.00000000E+00  0.00000000E+00  0.00000000E+00
  0.00000000E+00  0.00000000E+00  0.00000000E+00
  0.00000000E+00  0.00000000E+00  0.00000000E+00
  0.00000000E+00  0.00000000E+00  0.00000000E+00
  0.00000000E+00  0.00000000E+00  0.00000000E+00
  0.00000000E+00  0.00000000E+00  0.00000000E+00
  0.00000000E+00  0.00000000E+00  0.00000000E+00
  0.00000000E+00  0.00000000E+00  0.00000000E+00
  0.00000000E+00  0.00000000E+00  0.00000000E+00
  0.00000000E+00  0.00000000E+00  0.00000000E+00
  0.00000000E+00  0.00000000E+00  0.00000000E+00
  0.00000000E+00  0.00000000E+00  0.00000000E+00
  0.00000000E+00  0.00000000E+00  0.00000000E+00
  0.00000000E+00  0.00000000E+00  0.00000000E+00
  0.00000000E+00  0.00000000E+00  0.00000000E+00
  0.00000000E+00  0.00000000E+00  0.00000000E+00
  0.00000000E+00  0.00000000E+00  0.00000000E+00
  0.00000000E+00  0.00000000E+00  0.00000000E+00
  0.00000000E+00  0.00000000E+00  0.00000000E+00
  0.00000000E+00  0.00000000E+00  0.00000000E+00
  0.00000000E+00  0.00000000E+00  0.00000000E+00
  0.00000000E+00  0.00000000E+00  0.00000000E+00
  0.00000000E+00  0.00000000E+00  0.00000000E+00
  0.00000000E+00  0.00000000E+00  0.00000000E+00
  0.00000000E+00  0.00000000E+00  0.00000000E+00
  0.00000000E+00  0.00000000E+00  0.00000000E+00
  0.00000000E+00  0.00000000E+00  0.00000000E+00
