title                                   
    1.000000000000000     
    10.3425197953355124    0.0401653397029324   -0.0062047581574703
     0.0399859139954505   10.3350609402123048   -0.0071404058038563
    -0.0040735518364796   -0.0046644887481380    6.8401308404489374
   Hf   Nb   W_   Zr
    14    11     4     7
Direct
  0.6580834265359030  0.0004595784999424  0.5139147408147124
  0.8521451113084382  0.8534554529296017  0.7627813440091558
  0.4837803863274459  0.8179316902112035  0.7526606987378273
  0.0012754435901812  0.6605122344068235  0.4861908706705975
  0.8300752435518177  0.4878985303153769  0.7365343262046693
  0.8308120294955614  0.1648808030396083  0.2475092463363708
  0.3306386509702293  0.3293288781899548  0.4980963347504783
  0.4848273494294375  0.8255648459151175  0.2464481567311338
  0.3262391383317578  0.0183805739692389  0.9894912426103986
  0.5110200566275580  0.1715248965997915  0.2184154785529486
  0.8396290098307944  0.1692812056672821  0.7500107437346628
  0.6833587737878659  0.6734357671173683  0.0165330241309647
  0.9993416360555116  0.6569653146563539  0.0143380464385672
  0.1710547135423113  0.8267539450315837  0.7458915716241847
  0.0226624851007529  0.3292572523832504  0.4947488807960454
  0.4900997043192348  0.4977129260409825  0.2346890793825906
  0.0187413957213138  0.0162789464377084  0.0092955757272009
  0.6598294359655696  0.9947768905946859  0.9875656095014804
  0.1568352991988462  0.1735721810763025  0.7487230722329130
  0.3187193674180833  0.6385327387199027  0.4885210097334038
  0.0116762280342471  0.0114153963982275  0.4879661875465686
  0.3196055110943661  0.6454425128203809  0.0127086876523421
  0.1754392228322530  0.4972390459185831  0.7569855611256671
  0.8476854621846641  0.8616505421194844  0.2331325194294607
  0.6549546103930908  0.3388262217472828  0.9860767024612329
  0.4959769948687835  0.1750350100032065  0.7797619540645542
  0.3252700175467709  0.3319075206320008  0.0027798498164344
  0.1744097538287903  0.4939316453039240  0.2484513726837747
  0.1647894566643657  0.1704667618856206  0.2480919382139319
  0.6785753532517802  0.6807025387307277  0.4807283616632674
  0.4933003988887066  0.5053760777541569  0.7604492817852631
  0.8249927700042150  0.4732291212567077  0.2726700033216716
  0.6390572654154241  0.3177277051704905  0.5190196004804761
  0.3365532210540536  0.0202043349072838  0.5068285178429122
  0.1750822303985018  0.8324933251541893  0.2539058833655972
  0.0134628464313735  0.3378475883956469  0.0080845258265470
 
  0.00000000E+00  0.00000000E+00  0.00000000E+00
  0.00000000E+00  0.00000000E+00  0.00000000E+00
  0.00000000E+00  0.00000000E+00  0.00000000E+00
  0.00000000E+00  0.00000000E+00  0.00000000E+00
  0.00000000E+00  0.00000000E+00  0.00000000E+00
  0.00000000E+00  0.00000000E+00  0.00000000E+00
  0.00000000E+00  0.00000000E+00  0.00000000E+00
  0.00000000E+00  0.00000000E+00  0.00000000E+00
  0.00000000E+00  0.00000000E+00  0.00000000E+00
  0.00000000E+00  0.00000000E+00  0.00000000E+00
  0.00000000E+00  0.00000000E+00  0.00000000E+00
  0.00000000E+00  0.00000000E+00  0.00000000E+00
  0.00000000E+00  0.00000000E+00  0.00000000E+00
  0.00000000E+00  0.00000000E+00  0.00000000E+00
  0.00000000E+00  0.00000000E+00  0.00000000E+00
  0.00000000E+00  0.00000000E+00  0.00000000E+00
  0.00000000E+00  0.00000000E+00  0.00000000E+00
  0.00000000E+00  0.00000000E+00  0.00000000E+00
  0.00000000E+00  0.00000000E+00  0.00000000E+00
  0.00000000E+00  0.00000000E+00  0.00000000E+00
  0.00000000E+00  0.00000000E+00  0.00000000E+00
  0.00000000E+00  0.00000000E+00  0.00000000E+00
  0.00000000E+00  0.00000000E+00  0.00000000E+00
  0.00000000E+00  0.00000000E+00  0.00000000E+00
  0.00000000E+00  0.00000000E+00  0.00000000E+00
  0.00000000E+00  0.00000000E+00  0.00000000E+00
  0.00000000E+00  0.00000000E+00  0.00000000E+00
  0.00000000E+00  0.00000000E+00  0.00000000E+00
  0.00000000E+00  0.00000000E+00  0.00000000E+00
  0.00000000E+00  0.00000000E+00  0.00000000E+00
  0.00000000E+00  0.00000000E+00  0.00000000E+00
  0.00000000E+00  0.00000000E+00  0.00000000E+00
  0.00000000E+00  0.00000000E+00  0.00000000E+00
  0.00000000E+00  0.00000000E+00  0.00000000E+00
  0.00000000E+00  0.00000000E+00  0.00000000E+00
  0.00000000E+00  0.00000000E+00  0.00000000E+00
