WMoPd-8 alloy: 23 W, 23 Mo, 8 Pd        
    1.000000000000000     
     9.4689227825735109    0.0028215734162409    0.0161050530241778
     0.0027735963625194    9.5413402354055865   -0.0035764031963172
     0.0160342726574893   -0.0036027198708918    9.5219067118609519
   W    Mo   Pd
    23    23     8
Direct
  0.1669251703736734  0.1589492464739024  0.1674569889797226
  0.0041000522546923  0.9977632022356175  0.3315624142394284
  0.1681356954624746  0.1657293707208822  0.4985257163107164
  0.1652026105042808  0.5028664845734312  0.5078442796063101
  0.0047281227571077  0.3318996787640387  0.6693164919805028
  0.9981949936777070  0.6697547249274365  0.0000657308693164
  0.5007237543883036  0.1652993335849828  0.1703919112846108
  0.3304168672316266  0.3337006072520055  0.0008716759697123
  0.5043927024304722  0.5021112561741248  0.1661666980467444
  0.5051169804531241  0.5001463382250932  0.4996075709548720
  0.5027342168170179  0.5017956919810374  0.8386566898291150
  0.4990152741240408  0.8313169400100406  0.1697789694293306
  0.3313967771508928  0.6622230150938577  0.6692993412966217
  0.5024202980827184  0.8292703368434076  0.8351560640753988
  0.6665546416225396  0.9991989816279130  0.9978924529717332
  0.6526254060488910  0.0045585055732502  0.6685930136472962
  0.8316827292402422  0.1609746771612066  0.8283556926218267
  0.6698398494869622  0.3315302265061746  0.0012578973681414
  0.8324641691673875  0.5011160108965456  0.1666385266871728
  0.8327179224698682  0.4957229127917842  0.5032555643482297
  0.6652689160532930  0.3338817993233079  0.6698553548383828
  0.8354180041307799  0.5014085915977731  0.8320192204202570
  0.6672144244709770  0.6632062182684280  0.6662503635110326
  0.9977086051233428  0.0008396784450113  0.9982957013143761
  0.0135850467589478  0.0029972330773660  0.6658835737891309
  0.1677979077455234  0.1598022544481594  0.8388115286651470
  0.1662833242214319  0.5094969889634768  0.1576262397502290
  0.0039396429514795  0.3346678969156969  0.3315277275799957
  0.1667026151783020  0.5049801979633770  0.8372139444771278
  0.1682658147830836  0.8357270318797845  0.1651213478210920
  0.1720630607702418  0.8323475589742628  0.4992930995205356
  0.0005630606236693  0.6667719438490209  0.6621495586064370
  0.1678320816902357  0.8300375939014799  0.8335011265269259
  0.3339738956219946  0.9991109662946158  0.9983804377075032
  0.3305408306731650  0.0009775264279668  0.3329396054114753
  0.5036783925933648  0.1672188597922073  0.8398643638336765
  0.3334191904037738  0.6661680365695091  0.0007494795957967
  0.3230272307345956  0.6583654057536066  0.3287043719139007
  0.8311430706134999  0.1630327340253501  0.1738306012425852
  0.6670596280506089  0.0034871334908786  0.3219139369349904
  0.8320489873259405  0.1629159355495347  0.5028547540451100
  0.6689600058642711  0.3372361235233967  0.3313739189226510
  0.6695000295837019  0.6677068285517365  0.9991173918646226
  0.8317811808197177  0.8361387661294515  0.1637237446987498
  0.6737935438656706  0.6636744395315688  0.3291390226898585
  0.8337023890917692  0.8347677053646407  0.8275169012989352
  0.9932031245029549  0.3229331578461583  0.9994641546531398
  0.9929340922769470  0.6704077924141671  0.3393565893439501
  0.4981698232132530  0.1748287899051135  0.4937543231807098
  0.3388309388444597  0.0006072433066677  0.6654579339809743
  0.3241136059622107  0.3416516411025512  0.3243839051345390
  0.3325370627165540  0.3335029892978625  0.6745635598253870
  0.4998401489751458  0.8234555206808238  0.4946479810828066
  0.8257147577747931  0.8497192798036571  0.5084452258248913
 
  0.00000000E+00  0.00000000E+00  0.00000000E+00
  0.00000000E+00  0.00000000E+00  0.00000000E+00
  0.00000000E+00  0.00000000E+00  0.00000000E+00
  0.00000000E+00  0.00000000E+00  0.00000000E+00
  0.00000000E+00  0.00000000E+00  0.00000000E+00
  0.00000000E+00  0.00000000E+00  0.00000000E+00
  0.00000000E+00  0.00000000E+00  0.00000000E+00
  0.00000000E+00  0.00000000E+00  0.00000000E+00
  0.00000000E+00  0.00000000E+00  0.00000000E+00
  0.00000000E+00  0.00000000E+00  0.00000000E+00
  0.00000000E+00  0.00000000E+00  0.00000000E+00
  0.00000000E+00  0.00000000E+00  0.00000000E+00
  0.00000000E+00  0.00000000E+00  0.00000000E+00
  0.00000000E+00  0.00000000E+00  0.00000000E+00
  0.00000000E+00  0.00000000E+00  0.00000000E+00
  0.00000000E+00  0.00000000E+00  0.00000000E+00
  0.00000000E+00  0.00000000E+00  0.00000000E+00
  0.00000000E+00  0.00000000E+00  0.00000000E+00
  0.00000000E+00  0.00000000E+00  0.00000000E+00
  0.00000000E+00  0.00000000E+00  0.00000000E+00
  0.00000000E+00  0.00000000E+00  0.00000000E+00
  0.00000000E+00  0.00000000E+00  0.00000000E+00
  0.00000000E+00  0.00000000E+00  0.00000000E+00
  0.00000000E+00  0.00000000E+00  0.00000000E+00
  0.00000000E+00  0.00000000E+00  0.00000000E+00
  0.00000000E+00  0.00000000E+00  0.00000000E+00
  0.00000000E+00  0.00000000E+00  0.00000000E+00
  0.00000000E+00  0.00000000E+00  0.00000000E+00
  0.00000000E+00  0.00000000E+00  0.00000000E+00
  0.00000000E+00  0.00000000E+00  0.00000000E+00
  0.00000000E+00  0.00000000E+00  0.00000000E+00
  0.00000000E+00  0.00000000E+00  0.00000000E+00
  0.00000000E+00  0.00000000E+00  0.00000000E+00
  0.00000000E+00  0.00000000E+00  0.00000000E+00
  0.00000000E+00  0.00000000E+00  0.00000000E+00
  0.00000000E+00  0.00000000E+00  0.00000000E+00
  0.00000000E+00  0.00000000E+00  0.00000000E+00
  0.00000000E+00  0.00000000E+00  0.00000000E+00
  0.00000000E+00  0.00000000E+00  0.00000000E+00
  0.00000000E+00  0.00000000E+00  0.00000000E+00
  0.00000000E+00  0.00000000E+00  0.00000000E+00
  0.00000000E+00  0.00000000E+00  0.00000000E+00
  0.00000000E+00  0.00000000E+00  0.00000000E+00
  0.00000000E+00  0.00000000E+00  0.00000000E+00
  0.00000000E+00  0.00000000E+00  0.00000000E+00
  0.00000000E+00  0.00000000E+00  0.00000000E+00
  0.00000000E+00  0.00000000E+00  0.00000000E+00
  0.00000000E+00  0.00000000E+00  0.00000000E+00
  0.00000000E+00  0.00000000E+00  0.00000000E+00
  0.00000000E+00  0.00000000E+00  0.00000000E+00
  0.00000000E+00  0.00000000E+00  0.00000000E+00
  0.00000000E+00  0.00000000E+00  0.00000000E+00
  0.00000000E+00  0.00000000E+00  0.00000000E+00
  0.00000000E+00  0.00000000E+00  0.00000000E+00
