title                                   
    1.000000000000000     
     9.8885435658623351    0.0274510264507766    0.0098833482664036
     0.0279298586361179   10.0010773705620846   -0.0628065493836204
     0.0065611379247937   -0.0419481169388069    6.7110681269090513
   Ti   W_   Zr
    18     8    10
Direct
  0.6476376732496547  0.6438791732810287  0.9832785339884111
  0.8339324887616328  0.8501310024795288  0.7285155617088677
  0.8300156233475633  0.5095622035750083  0.2061492296983616
  0.8388815037335107  0.4871726090137969  0.7772434336957801
  0.1742662907409809  0.8569368352493214  0.2543789621540711
  0.6618171447417112  0.3395873048095126  0.4838182659694539
  0.0112257620887064  0.6724827025697664  0.9974709029459774
  0.0001917835030270  0.3289332465097203  0.0479399694295068
  0.9985104964902121  0.9822946867982267  0.0013562187376479
  0.3432381496580703  0.3322377857165364  0.0203025317481362
  0.8461774891278679  0.1525177180179966  0.2824731739089827
  0.1700376402329482  0.8545568671466981  0.7423315934295687
  0.9917714959202470  0.3459552046748300  0.4608543470177935
  0.1646027863616766  0.1574985836504368  0.2563364597332267
  0.4979213036306973  0.1742578621984308  0.7434212766639092
  0.3409903170168818  0.0129364628403152  0.4842298730165240
  0.4981441917437053  0.8473456282445255  0.2426785656431747
  0.6522607400658060  0.3368912257084844  0.0157649605702304
  0.3396709663319939  0.0138689256131315  0.0221044017185790
  0.3408942789605831  0.3321495969328652  0.4853116594462747
  0.4949706019311861  0.4734720028194914  0.7440056714387353
  0.5007624306476046  0.4896180306016475  0.2488160155616299
  0.6534552638638544  0.0144815935436284  0.4941593253335128
  0.4955726687772568  0.1676497102515739  0.2626532529835117
  0.1699607013556843  0.4870022061410495  0.2490791200491884
  0.0083296220773548  0.9941472368638244  0.4998893228331127
  0.6731122042515167  0.0244724036789350  0.0074684424547016
  0.1701612426326946  0.1617762599143475  0.7565909206427932
  0.6635607098964869  0.6501787013901748  0.5090503413416485
  0.4992341912606477  0.8502783933511324  0.7553509259268338
  0.1558349885976824  0.4720456989774178  0.7578267032190453
  0.3332489222670318  0.6586220327300225  0.0012556110751660
  0.8405210735605309  0.1712081238017262  0.7354623649849117
  0.3312704930573958  0.6570291598022493  0.4907828390594133
  0.8237560119198051  0.8364660735198228  0.2573598389803422
  0.0040607481957835  0.6603567475828029  0.4942893828909689
 
  0.00000000E+00  0.00000000E+00  0.00000000E+00
  0.00000000E+00  0.00000000E+00  0.00000000E+00
  0.00000000E+00  0.00000000E+00  0.00000000E+00
  0.00000000E+00  0.00000000E+00  0.00000000E+00
  0.00000000E+00  0.00000000E+00  0.00000000E+00
  0.00000000E+00  0.00000000E+00  0.00000000E+00
  0.00000000E+00  0.00000000E+00  0.00000000E+00
  0.00000000E+00  0.00000000E+00  0.00000000E+00
  0.00000000E+00  0.00000000E+00  0.00000000E+00
  0.00000000E+00  0.00000000E+00  0.00000000E+00
  0.00000000E+00  0.00000000E+00  0.00000000E+00
  0.00000000E+00  0.00000000E+00  0.00000000E+00
  0.00000000E+00  0.00000000E+00  0.00000000E+00
  0.00000000E+00  0.00000000E+00  0.00000000E+00
  0.00000000E+00  0.00000000E+00  0.00000000E+00
  0.00000000E+00  0.00000000E+00  0.00000000E+00
  0.00000000E+00  0.00000000E+00  0.00000000E+00
  0.00000000E+00  0.00000000E+00  0.00000000E+00
  0.00000000E+00  0.00000000E+00  0.00000000E+00
  0.00000000E+00  0.00000000E+00  0.00000000E+00
  0.00000000E+00  0.00000000E+00  0.00000000E+00
  0.00000000E+00  0.00000000E+00  0.00000000E+00
  0.00000000E+00  0.00000000E+00  0.00000000E+00
  0.00000000E+00  0.00000000E+00  0.00000000E+00
  0.00000000E+00  0.00000000E+00  0.00000000E+00
  0.00000000E+00  0.00000000E+00  0.00000000E+00
  0.00000000E+00  0.00000000E+00  0.00000000E+00
  0.00000000E+00  0.00000000E+00  0.00000000E+00
  0.00000000E+00  0.00000000E+00  0.00000000E+00
  0.00000000E+00  0.00000000E+00  0.00000000E+00
  0.00000000E+00  0.00000000E+00  0.00000000E+00
  0.00000000E+00  0.00000000E+00  0.00000000E+00
  0.00000000E+00  0.00000000E+00  0.00000000E+00
  0.00000000E+00  0.00000000E+00  0.00000000E+00
  0.00000000E+00  0.00000000E+00  0.00000000E+00
  0.00000000E+00  0.00000000E+00  0.00000000E+00
