title                                   
    1.000000000000000     
     9.4416366026095684   -0.0043084387477290   -0.0215359386748802
    -0.0041444457223626    9.5211451052785598    0.0125147332467428
    -0.0145052930843604    0.0083493158832277    6.3091160024121304
   Nb   Ti   V_   Zr
     4    10    19     3
Direct
  0.6679938536516943  0.6691111117340824  0.0097487478634548
  0.1658414554339984  0.4947607348879899  0.2549179955160596
  0.4987204021477822  0.1607685237610212  0.7414954075899161
  0.4923959114694796  0.5090939126296732  0.7482602958544504
  0.4818619846712764  0.1706321406765667  0.2592806699174304
  0.1618394817245559  0.5063890589601101  0.7514391049641489
  0.9977969908498565  0.9883918638682729  0.0087090849220246
  0.9762899018647815  0.3421809581878392  0.0021463098642229
  0.6755869424461025  0.0074561138539337  0.4641790668438119
  0.8278104969947790  0.8349521139506280  0.7494690461873290
  0.1650973187849516  0.1795019518839425  0.2607465382282754
  0.0058602520814190  0.9861320176599264  0.4893141862634636
  0.5063253346569070  0.8325002608810550  0.7333814592452441
  0.6745383635995665  0.3393925433149079  0.5013428127251274
  0.3235784711907641  0.9784824525358076  0.4895312219285728
  0.1692192201857097  0.8091327585049797  0.2671995572271157
  0.3451462289954819  0.3500089035091847  0.0057419677191533
  0.6709575425026912  0.6631995347345452  0.4890683721642972
  0.8416256948763987  0.5182579460192684  0.2666794354615689
  0.0029001076593147  0.6733831973397031  0.0071848543043842
  0.6794467523651733  0.0030043296104125  0.0155942264374147
  0.8455356806756100  0.5213224024546861  0.7371364852017663
  0.9716893790603294  0.3411490971715949  0.4984963068647588
  0.3329783393978403  0.6683013281400036  0.4915514148810374
  0.3312878866056010  0.6658808934063174  0.0118577040480616
  0.8334536736687639  0.1506591957265684  0.7465028644902532
  0.5005242668755798  0.8228250241928592  0.2663925729236709
  0.3499381361221268  0.3481838770344226  0.4964580635892801
  0.9991439228672192  0.6707923841218673  0.4950603565313187
  0.8523894423434015  0.1656968627539825  0.2526006346166270
  0.8331537473954000  0.8237341295765646  0.2437265609843635
  0.1695113179091692  0.8023168488689976  0.7352897518981578
  0.4909187693170978  0.5069629294824765  0.2557261377992859
  0.1638384062494893  0.1832017746448997  0.7417308965156906
  0.6721502444610863  0.3325668788493417  0.0042148233906474
  0.3226540788985872  0.9796739450715748  0.0078250650376077
 
  0.00000000E+00  0.00000000E+00  0.00000000E+00
  0.00000000E+00  0.00000000E+00  0.00000000E+00
  0.00000000E+00  0.00000000E+00  0.00000000E+00
  0.00000000E+00  0.00000000E+00  0.00000000E+00
  0.00000000E+00  0.00000000E+00  0.00000000E+00
  0.00000000E+00  0.00000000E+00  0.00000000E+00
  0.00000000E+00  0.00000000E+00  0.00000000E+00
  0.00000000E+00  0.00000000E+00  0.00000000E+00
  0.00000000E+00  0.00000000E+00  0.00000000E+00
  0.00000000E+00  0.00000000E+00  0.00000000E+00
  0.00000000E+00  0.00000000E+00  0.00000000E+00
  0.00000000E+00  0.00000000E+00  0.00000000E+00
  0.00000000E+00  0.00000000E+00  0.00000000E+00
  0.00000000E+00  0.00000000E+00  0.00000000E+00
  0.00000000E+00  0.00000000E+00  0.00000000E+00
  0.00000000E+00  0.00000000E+00  0.00000000E+00
  0.00000000E+00  0.00000000E+00  0.00000000E+00
  0.00000000E+00  0.00000000E+00  0.00000000E+00
  0.00000000E+00  0.00000000E+00  0.00000000E+00
  0.00000000E+00  0.00000000E+00  0.00000000E+00
  0.00000000E+00  0.00000000E+00  0.00000000E+00
  0.00000000E+00  0.00000000E+00  0.00000000E+00
  0.00000000E+00  0.00000000E+00  0.00000000E+00
  0.00000000E+00  0.00000000E+00  0.00000000E+00
  0.00000000E+00  0.00000000E+00  0.00000000E+00
  0.00000000E+00  0.00000000E+00  0.00000000E+00
  0.00000000E+00  0.00000000E+00  0.00000000E+00
  0.00000000E+00  0.00000000E+00  0.00000000E+00
  0.00000000E+00  0.00000000E+00  0.00000000E+00
  0.00000000E+00  0.00000000E+00  0.00000000E+00
  0.00000000E+00  0.00000000E+00  0.00000000E+00
  0.00000000E+00  0.00000000E+00  0.00000000E+00
  0.00000000E+00  0.00000000E+00  0.00000000E+00
  0.00000000E+00  0.00000000E+00  0.00000000E+00
  0.00000000E+00  0.00000000E+00  0.00000000E+00
  0.00000000E+00  0.00000000E+00  0.00000000E+00
