title                                   
    1.000000000000000     
    10.0015756976292867   -0.0181890546665012   -0.0135263608187904
    -0.0182850989912717    9.9431258836962808   -0.0089924922982699
    -0.0090135819549021   -0.0060445660531856    6.6671373476512796
   Hf   Nb   Ta   W_
     9     9     9     9
Direct
  0.3354344134816500  0.3263059950686795  0.5001564468763533
  0.1648030476156706  0.5097088559195697  0.2503346198791618
  0.1591045699383784  0.1694005119408999  0.7721772997310268
  0.9988628778977215  0.9974224394438522  0.4878477005535231
  0.0029284924688895  0.3226331848289092  0.4762615021843004
  0.8325503503554827  0.4976470520585536  0.7474143810759841
  0.8254133880937431  0.1684818844544083  0.7559569761066385
  0.5031560707160097  0.8369107346025615  0.2600336966490389
  0.3418791545612905  0.6612707789245462  0.9875297730490686
  0.6574836089278477  0.3333130422142929  0.0013025151720427
  0.6696526705468955  0.6685692360639806  0.0012312955788758
  0.5055929171792783  0.8371431834910368  0.7410026705628212
  0.3335878123056659  0.0019039277783932  0.0014270930268623
  0.9966830649142580  0.6771566789574166  0.4989801449334692
  0.8315669104519259  0.5017141396918348  0.2460537052434191
  0.5081073803552485  0.5013411509227268  0.2577739816724218
  0.9974548098009919  0.6766394669479610  0.0022731861696741
  0.8267742235898652  0.8340626593124369  0.7499129800216195
  0.5061005361593658  0.1600953508551086  0.2484657730038435
  0.9959610917400710  0.9918620012677124  0.0170305867791853
  0.1696425063646387  0.8328073421963893  0.7500206832128029
  0.3320111997111326  0.0080418115256577  0.5044724972143868
  0.5121135715932041  0.5005494762942533  0.7380135905619909
  0.1755817418882160  0.8264031395460805  0.2580120718722867
  0.3412724326644394  0.3345949139171935  0.9974226039109695
  0.1586547146368815  0.5019766053560275  0.7523801567215358
  0.8191715223949174  0.1639167576801697  0.2414893402313965
  0.6587766897270484  0.3314815548000638  0.4935252815473561
  0.3363308579360123  0.6668048119313355  0.5131466422619297
  0.1697092162128016  0.1630042874100539  0.2317725857948645
  0.5055558838573333  0.1638851662632064  0.7515676932072495
  0.6657936251056285  0.9992192616699072  0.9985369078458319
  0.6672463735766883  0.9994519886566948  0.5018517645328444
  0.8239968760645411  0.8334575531426225  0.2510851685669166
  0.6725359773134585  0.6688337597558487  0.4963346386414642
  0.9985094198528088  0.3319892951096151  0.0172020456068651
 
  0.00000000E+00  0.00000000E+00  0.00000000E+00
  0.00000000E+00  0.00000000E+00  0.00000000E+00
  0.00000000E+00  0.00000000E+00  0.00000000E+00
  0.00000000E+00  0.00000000E+00  0.00000000E+00
  0.00000000E+00  0.00000000E+00  0.00000000E+00
  0.00000000E+00  0.00000000E+00  0.00000000E+00
  0.00000000E+00  0.00000000E+00  0.00000000E+00
  0.00000000E+00  0.00000000E+00  0.00000000E+00
  0.00000000E+00  0.00000000E+00  0.00000000E+00
  0.00000000E+00  0.00000000E+00  0.00000000E+00
  0.00000000E+00  0.00000000E+00  0.00000000E+00
  0.00000000E+00  0.00000000E+00  0.00000000E+00
  0.00000000E+00  0.00000000E+00  0.00000000E+00
  0.00000000E+00  0.00000000E+00  0.00000000E+00
  0.00000000E+00  0.00000000E+00  0.00000000E+00
  0.00000000E+00  0.00000000E+00  0.00000000E+00
  0.00000000E+00  0.00000000E+00  0.00000000E+00
  0.00000000E+00  0.00000000E+00  0.00000000E+00
  0.00000000E+00  0.00000000E+00  0.00000000E+00
  0.00000000E+00  0.00000000E+00  0.00000000E+00
  0.00000000E+00  0.00000000E+00  0.00000000E+00
  0.00000000E+00  0.00000000E+00  0.00000000E+00
  0.00000000E+00  0.00000000E+00  0.00000000E+00
  0.00000000E+00  0.00000000E+00  0.00000000E+00
  0.00000000E+00  0.00000000E+00  0.00000000E+00
  0.00000000E+00  0.00000000E+00  0.00000000E+00
  0.00000000E+00  0.00000000E+00  0.00000000E+00
  0.00000000E+00  0.00000000E+00  0.00000000E+00
  0.00000000E+00  0.00000000E+00  0.00000000E+00
  0.00000000E+00  0.00000000E+00  0.00000000E+00
  0.00000000E+00  0.00000000E+00  0.00000000E+00
  0.00000000E+00  0.00000000E+00  0.00000000E+00
  0.00000000E+00  0.00000000E+00  0.00000000E+00
  0.00000000E+00  0.00000000E+00  0.00000000E+00
  0.00000000E+00  0.00000000E+00  0.00000000E+00
  0.00000000E+00  0.00000000E+00  0.00000000E+00
