title                                   
    1.000000000000000     
    10.0241473956482494    0.0638960214496721    0.0024896756181512
     0.0639065301022158   10.0454855466563764   -0.0043877339233142
     0.0016412434615073   -0.0029180510649050    6.7400423223996517
   Hf   Mo   Ti   W_   Zr
    15     3     4    11     3
Direct
  0.9977051492794118  0.6596129521537151  0.4951293433680064
  0.4949163739916713  0.8167939599349126  0.7472447425968269
  0.0052454969013098  0.0005843940202297  0.5189376514726618
  0.1853192451946555  0.5096423446173972  0.7528314395854352
  0.3261298405290987  0.3237315141780286  0.4873260794723748
  0.1662658516739910  0.8380997165521435  0.2396803207723295
  0.3285200273964364  0.0105601216161730  0.5110426087611089
  0.5062549435152235  0.5003670265569511  0.2511334962623053
  0.0047803348699560  0.3383437058931946  0.5072015337507025
  0.9975655371833270  0.3473354349597670  0.9837884327897868
  0.4902590567248097  0.8151181989260650  0.2592217258606979
  0.1600796898403232  0.1525419661435237  0.2182989153550494
  0.8294621960364310  0.1764707142540800  0.2441892069216891
  0.6604056362541044  0.9956682766515428  0.0256572248202005
  0.5051121348655769  0.5026014342587999  0.7474880681069251
  0.3206060836960205  0.6677609882860693  0.4976670637007672
  0.6688597190223717  0.3356607281344210  0.4982481443867073
  0.0021964118613553  0.9946254798202503  0.9863175480460455
  0.8159431288963290  0.4901865801677658  0.2571710915384529
  0.6904972682403141  0.6648277231508288  0.0117329902019492
  0.8214410792764255  0.1782870151041891  0.7540288537677426
  0.3159258590630643  0.6688152569104986  0.0032138248611417
  0.4961797190661628  0.1804364230910736  0.2330916980550981
  0.3294854129761760  0.3347809538185373  0.0075232176615927
  0.6871064038712689  0.6643967669167239  0.4972128450693063
  0.3335737630085376  0.9982877442407911  0.9889972704408549
  0.8221881222474678  0.5011684733280575  0.7451272526329973
  0.1681388210772710  0.8310390341925711  0.7634149538610515
  0.0019488702214332  0.6615970346800140  0.0082204445343024
  0.8405722163716902  0.8203593756968601  0.2437404869301290
  0.1722521179503858  0.5060113885304105  0.2352162771254740
  0.6712708355551484  0.3397404386761735  0.9994251503358385
  0.1726989584658725  0.1646376528589428  0.7737757004131538
  0.5092402612696389  0.1805483903391902  0.7567984013507854
  0.8375585478888539  0.8324503442299189  0.7669006542131029
  0.6642948857178936  0.9969104471101957  0.4830053409774280
 
  0.00000000E+00  0.00000000E+00  0.00000000E+00
  0.00000000E+00  0.00000000E+00  0.00000000E+00
  0.00000000E+00  0.00000000E+00  0.00000000E+00
  0.00000000E+00  0.00000000E+00  0.00000000E+00
  0.00000000E+00  0.00000000E+00  0.00000000E+00
  0.00000000E+00  0.00000000E+00  0.00000000E+00
  0.00000000E+00  0.00000000E+00  0.00000000E+00
  0.00000000E+00  0.00000000E+00  0.00000000E+00
  0.00000000E+00  0.00000000E+00  0.00000000E+00
  0.00000000E+00  0.00000000E+00  0.00000000E+00
  0.00000000E+00  0.00000000E+00  0.00000000E+00
  0.00000000E+00  0.00000000E+00  0.00000000E+00
  0.00000000E+00  0.00000000E+00  0.00000000E+00
  0.00000000E+00  0.00000000E+00  0.00000000E+00
  0.00000000E+00  0.00000000E+00  0.00000000E+00
  0.00000000E+00  0.00000000E+00  0.00000000E+00
  0.00000000E+00  0.00000000E+00  0.00000000E+00
  0.00000000E+00  0.00000000E+00  0.00000000E+00
  0.00000000E+00  0.00000000E+00  0.00000000E+00
  0.00000000E+00  0.00000000E+00  0.00000000E+00
  0.00000000E+00  0.00000000E+00  0.00000000E+00
  0.00000000E+00  0.00000000E+00  0.00000000E+00
  0.00000000E+00  0.00000000E+00  0.00000000E+00
  0.00000000E+00  0.00000000E+00  0.00000000E+00
  0.00000000E+00  0.00000000E+00  0.00000000E+00
  0.00000000E+00  0.00000000E+00  0.00000000E+00
  0.00000000E+00  0.00000000E+00  0.00000000E+00
  0.00000000E+00  0.00000000E+00  0.00000000E+00
  0.00000000E+00  0.00000000E+00  0.00000000E+00
  0.00000000E+00  0.00000000E+00  0.00000000E+00
  0.00000000E+00  0.00000000E+00  0.00000000E+00
  0.00000000E+00  0.00000000E+00  0.00000000E+00
  0.00000000E+00  0.00000000E+00  0.00000000E+00
  0.00000000E+00  0.00000000E+00  0.00000000E+00
  0.00000000E+00  0.00000000E+00  0.00000000E+00
  0.00000000E+00  0.00000000E+00  0.00000000E+00
