title                                   
    1.000000000000000     
     9.5776025425110305   -0.0148357210156754    0.0478972061495599
    -0.0147541941861088    9.5772562788675888    0.0533101697029520
     0.0321070656540573    0.0355460602788115    6.4779635794472172
   Hf   Ti   V_   W_
    10     4    19     3
Direct
  0.4906318516274979  0.8270980415768037  0.7627761143723077
  0.1594621192293246  0.1484302938329876  0.2417165742705265
  0.6627465455223103  0.6701306138138676  0.4738142451789713
  0.3198978969051396  0.6527974259433265  0.4977234323874953
  0.0075919138246832  0.3489828498001089  0.4991535978149457
  0.6674103723985993  0.0110738155138392  0.0014097951045997
  0.0037395403855669  0.6724829117742814  0.9990319844389077
  0.8119901160544742  0.4937422446090096  0.7670453959507455
  0.8553871796021824  0.8655273581616711  0.2720188928095979
  0.3377029638906777  0.3330293885380513  0.5045183962955946
  0.0091014884570697  0.6709660752853921  0.5175240429086685
  0.8196152236363758  0.4750145082942012  0.2253301351953638
  0.1751249117460532  0.8479501473012547  0.2474905175431346
  0.3481456363222861  0.3226344487416455  0.9904081484431728
  0.6513193134330564  0.3190082368919818  0.0007773433406939
  0.8298805223841796  0.1767808072535004  0.7405217014657737
  0.3334155197395532  0.6548981505735370  0.0106050406015825
  0.4780689560681424  0.8390148563950248  0.2357467153874566
  0.8300206264868280  0.1809336049390851  0.2527087355783024
  0.6568594849929710  0.3234771072785989  0.4939497219477431
  0.3401015803201801  0.0003305088255843  0.5041409023887766
  0.9985454951671642  0.0170636744880923  0.5347158074796212
  0.1805535796664728  0.8482686246048132  0.7570566535101051
  0.5113846248453555  0.1614555155978579  0.7226928350677753
  0.5061470386518039  0.1556137162490643  0.2755315188715528
  0.6693412625815682  0.0196883117462150  0.5087696617287989
  0.3359916058679673  0.9996360461989227  0.9952366607679224
  0.1731967141349458  0.4887811819182559  0.1964938077195626
  0.9966130773372299  0.3193179743267436  0.9888001706384273
  0.5093896551917609  0.5016000340524158  0.7658483691685802
  0.6538153351247189  0.6648879682250950  0.0221868427869865
  0.1696973131391033  0.4876219465643885  0.8035177720677638
  0.0001466635681879  0.0025927228643923  0.9676498354042877
  0.5037036900112710  0.4950012426288666  0.2301911098848066
  0.8385854131937620  0.8470399840758915  0.7361891768675690
  0.1646747684915368  0.1571276611152399  0.7567083446118659
 
  0.00000000E+00  0.00000000E+00  0.00000000E+00
  0.00000000E+00  0.00000000E+00  0.00000000E+00
  0.00000000E+00  0.00000000E+00  0.00000000E+00
  0.00000000E+00  0.00000000E+00  0.00000000E+00
  0.00000000E+00  0.00000000E+00  0.00000000E+00
  0.00000000E+00  0.00000000E+00  0.00000000E+00
  0.00000000E+00  0.00000000E+00  0.00000000E+00
  0.00000000E+00  0.00000000E+00  0.00000000E+00
  0.00000000E+00  0.00000000E+00  0.00000000E+00
  0.00000000E+00  0.00000000E+00  0.00000000E+00
  0.00000000E+00  0.00000000E+00  0.00000000E+00
  0.00000000E+00  0.00000000E+00  0.00000000E+00
  0.00000000E+00  0.00000000E+00  0.00000000E+00
  0.00000000E+00  0.00000000E+00  0.00000000E+00
  0.00000000E+00  0.00000000E+00  0.00000000E+00
  0.00000000E+00  0.00000000E+00  0.00000000E+00
  0.00000000E+00  0.00000000E+00  0.00000000E+00
  0.00000000E+00  0.00000000E+00  0.00000000E+00
  0.00000000E+00  0.00000000E+00  0.00000000E+00
  0.00000000E+00  0.00000000E+00  0.00000000E+00
  0.00000000E+00  0.00000000E+00  0.00000000E+00
  0.00000000E+00  0.00000000E+00  0.00000000E+00
  0.00000000E+00  0.00000000E+00  0.00000000E+00
  0.00000000E+00  0.00000000E+00  0.00000000E+00
  0.00000000E+00  0.00000000E+00  0.00000000E+00
  0.00000000E+00  0.00000000E+00  0.00000000E+00
  0.00000000E+00  0.00000000E+00  0.00000000E+00
  0.00000000E+00  0.00000000E+00  0.00000000E+00
  0.00000000E+00  0.00000000E+00  0.00000000E+00
  0.00000000E+00  0.00000000E+00  0.00000000E+00
  0.00000000E+00  0.00000000E+00  0.00000000E+00
  0.00000000E+00  0.00000000E+00  0.00000000E+00
  0.00000000E+00  0.00000000E+00  0.00000000E+00
  0.00000000E+00  0.00000000E+00  0.00000000E+00
  0.00000000E+00  0.00000000E+00  0.00000000E+00
  0.00000000E+00  0.00000000E+00  0.00000000E+00
