title                                   
    1.000000000000000     
     9.4921677584034185    0.0051272016997673   -0.0205035189866992
     0.0051213145257090    9.4987447961093192    0.0099670285383361
    -0.0136500563924874    0.0066293787035380    6.3439079086464290
   Nb   V_   W_
    12    12    12
Direct
  0.0005791441327290  0.3298165708153178  0.4964939256488918
  0.0051477861659706  0.9998203689442136  0.4902602766680886
  0.1692411654358352  0.8363421676554168  0.7528366820595949
  0.6639814478610191  0.6663826631236844  0.4974381552851526
  0.1658975265832296  0.5002347130198217  0.7545491996838578
  0.8366504748992369  0.8318930998279654  0.7573014639376296
  0.8385190441141006  0.1668612759648056  0.7593299367210378
  0.6665186036952235  0.9997317421442062  0.4967964298209893
  0.4931185215033551  0.1644385782197659  0.7545207386878729
  0.3330002249239286  0.3320939160233465  0.4976427931681187
  0.6665027846780802  0.3354046993238242  0.4965812563840970
  0.1672611957001706  0.5035218355245448  0.2455869027845239
  0.9986938021154685  0.3301239346088636  0.0019634867940326
  0.3307223702605597  0.0007852134901114  0.0050011153838057
  0.3335316416976966  0.3300433242457856  0.0006880605038688
  0.8381027506105312  0.8330591635418401  0.2441769002214471
  0.0042214450837221  0.0017334993018281  0.0076377509221501
  0.1688569982201784  0.1626478222595296  0.7583251060298082
  0.8355803193146230  0.1651537556341367  0.2408362548157186
  0.3358332790266161  0.6710355796660821  0.4976352188455522
  0.1673134297348327  0.8332213308440330  0.2475089654139069
  0.4977908168203840  0.5017564781292734  0.2455688143669548
  0.3319957145071797  0.9975486816851316  0.4934453377533714
  0.9962055344639822  0.6675652884301329  0.0043968034581852
  0.6655666728875573  0.6663006491807764  0.0038203588272765
  0.4949929602355070  0.8341222104019153  0.7516451372334885
  0.8357410046858647  0.5014427742831558  0.7560993118678638
  0.0001104431046528  0.6686804281777654  0.4951964571624003
  0.4968399287728573  0.1657243209886161  0.2441120900195628
  0.1682720428245759  0.1624310973222620  0.2379828383588460
  0.4941117180903731  0.8340498475542262  0.2506185208272527
  0.6655517633583088  0.3355594725513882  0.0041409509625936
  0.8346664324733695  0.5014954527611550  0.2446358788819154
  0.3353397364207567  0.6686715242336874  0.0036851293855449
  0.4973791925006736  0.5019065379084680  0.7549787796114202
  0.6661620830968644  0.9983999822129164  0.0065629715031790
 
  0.00000000E+00  0.00000000E+00  0.00000000E+00
  0.00000000E+00  0.00000000E+00  0.00000000E+00
  0.00000000E+00  0.00000000E+00  0.00000000E+00
  0.00000000E+00  0.00000000E+00  0.00000000E+00
  0.00000000E+00  0.00000000E+00  0.00000000E+00
  0.00000000E+00  0.00000000E+00  0.00000000E+00
  0.00000000E+00  0.00000000E+00  0.00000000E+00
  0.00000000E+00  0.00000000E+00  0.00000000E+00
  0.00000000E+00  0.00000000E+00  0.00000000E+00
  0.00000000E+00  0.00000000E+00  0.00000000E+00
  0.00000000E+00  0.00000000E+00  0.00000000E+00
  0.00000000E+00  0.00000000E+00  0.00000000E+00
  0.00000000E+00  0.00000000E+00  0.00000000E+00
  0.00000000E+00  0.00000000E+00  0.00000000E+00
  0.00000000E+00  0.00000000E+00  0.00000000E+00
  0.00000000E+00  0.00000000E+00  0.00000000E+00
  0.00000000E+00  0.00000000E+00  0.00000000E+00
  0.00000000E+00  0.00000000E+00  0.00000000E+00
  0.00000000E+00  0.00000000E+00  0.00000000E+00
  0.00000000E+00  0.00000000E+00  0.00000000E+00
  0.00000000E+00  0.00000000E+00  0.00000000E+00
  0.00000000E+00  0.00000000E+00  0.00000000E+00
  0.00000000E+00  0.00000000E+00  0.00000000E+00
  0.00000000E+00  0.00000000E+00  0.00000000E+00
  0.00000000E+00  0.00000000E+00  0.00000000E+00
  0.00000000E+00  0.00000000E+00  0.00000000E+00
  0.00000000E+00  0.00000000E+00  0.00000000E+00
  0.00000000E+00  0.00000000E+00  0.00000000E+00
  0.00000000E+00  0.00000000E+00  0.00000000E+00
  0.00000000E+00  0.00000000E+00  0.00000000E+00
  0.00000000E+00  0.00000000E+00  0.00000000E+00
  0.00000000E+00  0.00000000E+00  0.00000000E+00
  0.00000000E+00  0.00000000E+00  0.00000000E+00
  0.00000000E+00  0.00000000E+00  0.00000000E+00
  0.00000000E+00  0.00000000E+00  0.00000000E+00
  0.00000000E+00  0.00000000E+00  0.00000000E+00
