title                                   
    1.000000000000000     
     9.5662777554048866   -0.0147722937322025   -0.0014286907295764
    -0.0148050880185843    9.5671526333325119    0.0078277274451928
    -0.0009453092811758    0.0052080160028992    6.4064333302970971
   Ti   W_
    18    18
Direct
  0.3382670421063096  0.3369505404878623  0.4812185890426619
  0.4985311774742982  0.8334718794392018  0.2557717420026933
  0.0019140721459436  0.9952897939237388  0.9888157923670562
  0.0001313497385667  0.0022916976112768  0.5121856808024674
  0.8305217192106866  0.1594685922352994  0.2439033982125665
  0.6647681917838071  0.3349650160361364  0.4916830645009540
  0.3390280339344969  0.3335979857874207  0.0142329670103436
  0.4983192592415193  0.1618983802367211  0.7459123609251961
  0.8253841215084421  0.8375764539342754  0.2557490590382230
  0.3281178536560532  0.0031368977289077  0.0029644470659562
  0.1700310540680121  0.1742068295922650  0.7496624822764772
  0.9992909622175503  0.6716667925218616  0.0014935419971636
  0.9980810141986467  0.3296665328529684  0.4911704947656972
  0.6670525639337015  0.6621852828624597  0.9981275497096647
  0.8409296510209643  0.4983330082555142  0.7464641889135564
  0.1644080193639184  0.4970817067145674  0.7512902959102163
  0.6618724228125572  0.3389100293086784  0.0026057676050328
  0.1725726041211786  0.8313068440255194  0.2601862917844784
  0.9993860797866390  0.3332294045485540  0.0060563756278214
  0.3347159170408531  0.6635494820088326  0.5023619184921344
  0.8305408809979795  0.1670937367437020  0.7534136588096203
  0.6659696394389485  0.6627478492298593  0.5028049919786923
  0.5053704541918052  0.1573952135408447  0.2519576848984570
  0.3346375211088670  0.6658406915385271  0.9997442973884603
  0.6643736499946300  0.9989540760674558  0.9962997651501055
  0.8360117825371916  0.5015297098298461  0.2508461595723190
  0.1641826044193735  0.1645483814483910  0.2500590761487018
  0.4982248754265299  0.5044980207251797  0.7466972214480094
  0.0004038927081353  0.6670120159150272  0.5001041287771955
  0.1699495654567755  0.8294963922772780  0.7465352400624425
  0.1669342096441255  0.5064676102299899  0.2494373946893802
  0.5003235786109741  0.8370408111415912  0.7490932634589100
  0.6678164622177718  0.0007137857435140  0.5038459139770310
  0.5007842330377699  0.5068370091693879  0.2496950512450837
  0.3300111678707864  0.0013297465936191  0.5022032453196985
  0.8311423729741989  0.8297117996937331  0.7454068990255465
 
  0.00000000E+00  0.00000000E+00  0.00000000E+00
  0.00000000E+00  0.00000000E+00  0.00000000E+00
  0.00000000E+00  0.00000000E+00  0.00000000E+00
  0.00000000E+00  0.00000000E+00  0.00000000E+00
  0.00000000E+00  0.00000000E+00  0.00000000E+00
  0.00000000E+00  0.00000000E+00  0.00000000E+00
  0.00000000E+00  0.00000000E+00  0.00000000E+00
  0.00000000E+00  0.00000000E+00  0.00000000E+00
  0.00000000E+00  0.00000000E+00  0.00000000E+00
  0.00000000E+00  0.00000000E+00  0.00000000E+00
  0.00000000E+00  0.00000000E+00  0.00000000E+00
  0.00000000E+00  0.00000000E+00  0.00000000E+00
  0.00000000E+00  0.00000000E+00  0.00000000E+00
  0.00000000E+00  0.00000000E+00  0.00000000E+00
  0.00000000E+00  0.00000000E+00  0.00000000E+00
  0.00000000E+00  0.00000000E+00  0.00000000E+00
  0.00000000E+00  0.00000000E+00  0.00000000E+00
  0.00000000E+00  0.00000000E+00  0.00000000E+00
  0.00000000E+00  0.00000000E+00  0.00000000E+00
  0.00000000E+00  0.00000000E+00  0.00000000E+00
  0.00000000E+00  0.00000000E+00  0.00000000E+00
  0.00000000E+00  0.00000000E+00  0.00000000E+00
  0.00000000E+00  0.00000000E+00  0.00000000E+00
  0.00000000E+00  0.00000000E+00  0.00000000E+00
  0.00000000E+00  0.00000000E+00  0.00000000E+00
  0.00000000E+00  0.00000000E+00  0.00000000E+00
  0.00000000E+00  0.00000000E+00  0.00000000E+00
  0.00000000E+00  0.00000000E+00  0.00000000E+00
  0.00000000E+00  0.00000000E+00  0.00000000E+00
  0.00000000E+00  0.00000000E+00  0.00000000E+00
  0.00000000E+00  0.00000000E+00  0.00000000E+00
  0.00000000E+00  0.00000000E+00  0.00000000E+00
  0.00000000E+00  0.00000000E+00  0.00000000E+00
  0.00000000E+00  0.00000000E+00  0.00000000E+00
  0.00000000E+00  0.00000000E+00  0.00000000E+00
  0.00000000E+00  0.00000000E+00  0.00000000E+00
