title                                   
    1.000000000000000     
     9.6445786027973170   -0.0263890921433196    0.0019299651065006
    -0.0263822133376482    9.6498335718679957    0.0019178882028104
     0.0012844902519510    0.0012776498641343    6.4343627351015540
   Mo   Ta   W_
    12    12    12
Direct
  0.6683495833937201  0.3353856380574740  0.4978518642897924
  0.1653468473716089  0.1670280213555699  0.2473857497416390
  0.3337599020159985  0.6680291985199460  0.0030233075416675
  0.8354922344234339  0.1695539185393500  0.2503873478296086
  0.8327233257607674  0.4986214756971776  0.2491813320173932
  0.0025902228749430  0.0011888692232418  0.0000343942691572
  0.4978441959587627  0.8302358264917942  0.2491382583169965
  0.3337112858665776  0.6687490120046249  0.4975991389303616
  0.6670280408930296  0.6641455422140012  0.0029495316996915
  0.3302323092078225  0.0003370716284152  0.0012899727239528
  0.1649227258186201  0.1669196504518808  0.7507495221864389
  0.8330562029009627  0.4987230714862037  0.7508909179207208
  0.9994428137734133  0.6647873167812008  0.5001335863398708
  0.3299444119370420  0.0008440292141358  0.4956722517579024
  0.5005022654715887  0.5009120443189659  0.7506214096888826
  0.1692800318429164  0.4986566788345073  0.2484374188879599
  0.6644145177592975  0.0027806037670359  0.0062094747502357
  0.8357327088160105  0.1692415833128607  0.7500770972341257
  0.8352169030992229  0.8316886955127458  0.2471440748041758
  0.1694259275982262  0.4989689953587018  0.7513177913158202
  0.6639455165438903  0.0008104230338262  0.4946619757791666
  0.4971134759169686  0.8288253169081798  0.7528677649233018
  0.8338658831255685  0.8331236935338566  0.7521672729089204
  0.4987990045807251  0.1712461969895713  0.7512256776333572
  0.6687216601076358  0.3354442173032766  0.0056636049792331
  0.9996050197773982  0.3321039080028712  0.4985853634493935
  0.1661452432131796  0.8330262531299937  0.7520718145668823
  0.9997553255807006  0.3318084679228832  0.0016970116340573
  0.3329720994726770  0.3306551068250556  0.4973985554286173
  0.4977484661981322  0.1715554632264968  0.2493042166840382
  0.0008826743830568  0.6651405475663452  0.9992059868146939
  0.0035499245400743  0.0006619485262078  0.4984740737615567
  0.5009061731020097  0.5000464074420279  0.2505871945060107
  0.3332235281708336  0.3314305498793644  0.0026936547044158
  0.6676544566712508  0.6643132701989458  0.4972764583857625
  0.1660950918319415  0.8330109867412645  0.2460249315941851
 
  0.00000000E+00  0.00000000E+00  0.00000000E+00
  0.00000000E+00  0.00000000E+00  0.00000000E+00
  0.00000000E+00  0.00000000E+00  0.00000000E+00
  0.00000000E+00  0.00000000E+00  0.00000000E+00
  0.00000000E+00  0.00000000E+00  0.00000000E+00
  0.00000000E+00  0.00000000E+00  0.00000000E+00
  0.00000000E+00  0.00000000E+00  0.00000000E+00
  0.00000000E+00  0.00000000E+00  0.00000000E+00
  0.00000000E+00  0.00000000E+00  0.00000000E+00
  0.00000000E+00  0.00000000E+00  0.00000000E+00
  0.00000000E+00  0.00000000E+00  0.00000000E+00
  0.00000000E+00  0.00000000E+00  0.00000000E+00
  0.00000000E+00  0.00000000E+00  0.00000000E+00
  0.00000000E+00  0.00000000E+00  0.00000000E+00
  0.00000000E+00  0.00000000E+00  0.00000000E+00
  0.00000000E+00  0.00000000E+00  0.00000000E+00
  0.00000000E+00  0.00000000E+00  0.00000000E+00
  0.00000000E+00  0.00000000E+00  0.00000000E+00
  0.00000000E+00  0.00000000E+00  0.00000000E+00
  0.00000000E+00  0.00000000E+00  0.00000000E+00
  0.00000000E+00  0.00000000E+00  0.00000000E+00
  0.00000000E+00  0.00000000E+00  0.00000000E+00
  0.00000000E+00  0.00000000E+00  0.00000000E+00
  0.00000000E+00  0.00000000E+00  0.00000000E+00
  0.00000000E+00  0.00000000E+00  0.00000000E+00
  0.00000000E+00  0.00000000E+00  0.00000000E+00
  0.00000000E+00  0.00000000E+00  0.00000000E+00
  0.00000000E+00  0.00000000E+00  0.00000000E+00
  0.00000000E+00  0.00000000E+00  0.00000000E+00
  0.00000000E+00  0.00000000E+00  0.00000000E+00
  0.00000000E+00  0.00000000E+00  0.00000000E+00
  0.00000000E+00  0.00000000E+00  0.00000000E+00
  0.00000000E+00  0.00000000E+00  0.00000000E+00
  0.00000000E+00  0.00000000E+00  0.00000000E+00
  0.00000000E+00  0.00000000E+00  0.00000000E+00
  0.00000000E+00  0.00000000E+00  0.00000000E+00
